     Program PWSCF v.7.2 starts on  6Oct2024 at  7:47: 3

     Reading input from Cu-vib.pwi
Warning: card &CELL ignored
Warning: card / ignored

     Current dimensions of program PWSCF are:
     Max number of different atomic species (ntypx) = 10
     Max number of k-points (npk) =  40000
     Max angular momentum in pseudopotentials (lmaxx) =  4
     file Cu.pbe-dn-kjpaw_psl.1.0.0.UPF: wavefunction(s)  4S 3D renormalized
     file C.pbe-n-kjpaw_psl.1.0.0.UPF: wavefunction(s)  2S 2P renormalized
     file O.pbe-n-kjpaw_psl.1.0.0.UPF: wavefunction(s)  2S 2P renormalized

     IMPORTANT: XC functional enforced from input :
     Exchange-correlation= BEEF-VDW
                           (   1   4  43  14   2   0   0)
     Any further DFT definition will be discarded
     Please, verify this is what you really want

     K-points division:     npool     =       2
     R & G space division:  proc/nbgrp/npool/nimage =      96
     Subspace diagonalization in iterative solution of the eigenvalue problem:
     one sub-group per band group will be used

     Using Slab Decomposition

     Title:
     Cu-vib

     bravais-lattice index     =            0
     lattice parameter (alat)  =      14.6292  a.u.
     unit-cell volume          =    7467.4528 (a.u.)^3
     number of atoms/cell      =           38
     number of atomic types    =            3
     number of electrons       =       406.00
     number of Kohn-Sham states=          244
     kinetic-energy cutoff     =      62.4738  Ry
     charge density cutoff     =     624.7385  Ry
     scf convergence threshold =      7.3E-12
     mixing beta               =       0.3333
     number of iterations used =           12  plain     mixing
     Exchange-correlation= BEEF-VDW
                           (   1   4  43  14   2   0   0)

     Effective Screening Medium Method
     Boundary Conditions: Vacuum-Slab-Metal
     total charge in unit cell        =   0.0000
     grid points for fit at edges     =        4

     celldm(1)=  14.629161  celldm(2)=   0.000000  celldm(3)=   0.000000
     celldm(4)=   0.000000  celldm(5)=   0.000000  celldm(6)=   0.000000

     crystal axes: (cart. coord. in units of alat)
               a(1) = (   1.000000   0.000000   0.000000 )
               a(2) = (   0.500000   0.866025   0.000000 )
               a(3) = (   0.000000   0.000000   2.754126 )

     reciprocal axes: (cart. coord. in units 2 pi/alat)
               b(1) = (  1.000000 -0.577351  0.000000 )
               b(2) = (  0.000000  1.154701  0.000000 )
               b(3) = (  0.000000  0.000000  0.363092 )

     PseudoPot. # 1 for Cu read from file:
     /home/k0227/k022716/QE/pseudo/Cu.pbe-dn-kjpaw_psl.1.0.0.UPF
     MD5 check sum: 67c40f9e1593dc2d139023e70404cc2a
     Pseudo is Projector augmented-wave + core cor, Zval = 11.0
     Generated using "atomic" code by A. Dal Corso  v.6.1 svn rev. 13369
     Shape of augmentation charge: PSQ
     Using radial grid of 1199 points,  6 beta functions with:
                l(1) =   0
                l(2) =   0
                l(3) =   1
                l(4) =   1
                l(5) =   2
                l(6) =   2
     Q(r) pseudized with 0 coefficients

     PseudoPot. # 2 for C  read from file:
     /home/k0227/k022716/QE/pseudo/C.pbe-n-kjpaw_psl.1.0.0.UPF
     MD5 check sum: 92a742b3ac0ce1af44b5aa3f9352ca21
     Pseudo is Projector augmented-wave + core cor, Zval =  4.0
     Generated using "atomic" code by A. Dal Corso  v.6.1 svn rev. 13369
     Shape of augmentation charge: PSQ
     Using radial grid of 1073 points,  4 beta functions with:
                l(1) =   0
                l(2) =   0
                l(3) =   1
                l(4) =   1
     Q(r) pseudized with 0 coefficients

     PseudoPot. # 3 for O  read from file:
     /home/k0227/k022716/QE/pseudo/O.pbe-n-kjpaw_psl.1.0.0.UPF
     MD5 check sum: c61d840054b6bba219e553541e327118
     Pseudo is Projector augmented-wave + core cor, Zval =  6.0
     Generated using "atomic" code by A. Dal Corso  v.6.1 svn rev. 13369
     Shape of augmentation charge: PSQ
     Using radial grid of 1095 points,  4 beta functions with:
                l(1) =   0
                l(2) =   0
                l(3) =   1
                l(4) =   1
     Q(r) pseudized with 0 coefficients

     atomic species   valence    mass     pseudopotential
        Cu            11.00    63.54600     Cu( 1.00)
        C              4.00    12.01100     C ( 1.00)
        O              6.00    15.99900     O ( 1.00)

     No symmetry found

                                    s                        frac. trans.

      isym =  1     identity

 cryst.   s( 1) = (     1          0          0      )
                  (     0          1          0      )
                  (     0          0          1      )

 cart.    s( 1) = (  1.0000000  0.0000000  0.0000000 )
                  (  0.0000000  1.0000000  0.0000000 )
                  (  0.0000000  0.0000000  1.0000000 )

   Cartesian axes

     site n.     atom                  positions (alat units)
         1           Cu  tau(   1) = (   0.0000000   0.0000000  -0.8213672  )
         2           Cu  tau(   2) = (   0.3333333   0.0000000  -0.8213672  )
         3           Cu  tau(   3) = (   0.6666667   0.0000000  -0.8213672  )
         4           Cu  tau(   4) = (   0.1666667   0.2886751  -0.8213672  )
         5           Cu  tau(   5) = (   0.5000000   0.2886751  -0.8213672  )
         6           Cu  tau(   6) = (   0.8333334   0.2886751  -0.8213672  )
         7           Cu  tau(   7) = (   0.3333333   0.5773503  -0.8213672  )
         8           Cu  tau(   8) = (   0.6666667   0.5773503  -0.8213672  )
         9           Cu  tau(   9) = (   1.0000000   0.5773503  -0.8213672  )
        10           Cu  tau(  10) = (   0.1676806   0.0968104  -0.5514925  )
        11           Cu  tau(  11) = (   0.5000000   0.0962635  -0.5516923  )
        12           Cu  tau(  12) = (   0.8323194   0.0968104  -0.5514925  )
        13           Cu  tau(  13) = (   0.3333666   0.3848810  -0.5516923  )
        14           Cu  tau(  14) = (   0.6666334   0.3848810  -0.5516923  )
        15           Cu  tau(  15) = (   1.0000000   0.3850188  -0.5516520  )
        16           Cu  tau(  16) = (   0.5000000   0.6724045  -0.5514925  )
        17           Cu  tau(  17) = (   0.8334361   0.6735160  -0.5516520  )
        18           Cu  tau(  18) = (   1.1665640   0.6735160  -0.5516520  )
        19           Cu  tau(  19) = (   0.0000000   0.1919552  -0.2839341  )
        20           Cu  tau(  20) = (   0.3352907   0.1935802  -0.2785067  )
        21           Cu  tau(  21) = (   0.6647094   0.1935802  -0.2785067  )
        22           Cu  tau(  22) = (   0.1667633   0.4810694  -0.2821276  )
        23           Cu  tau(  23) = (   0.5000000   0.4788651  -0.2785067  )
        24           Cu  tau(  24) = (   0.8332367   0.4810694  -0.2821276  )
        25           Cu  tau(  25) = (   0.3337619   0.7700478  -0.2839341  )
        26           Cu  tau(  26) = (   0.6662381   0.7700478  -0.2839341  )
        27           Cu  tau(  27) = (   1.0000000   0.7699120  -0.2821276  )
        28           Cu  tau(  28) = (   0.0000000   0.0000000  -0.0140374  )
        29           Cu  tau(  29) = (   0.3321303  -0.0026924  -0.0143045  )
        30           Cu  tau(  30) = (   0.6678698  -0.0026924  -0.0143045  )
        31           Cu  tau(  31) = (   0.1637335   0.2889794  -0.0143045  )
        32           Cu  tau(  32) = (   0.5000000   0.2886751   0.0020709  )
        33           Cu  tau(  33) = (   0.8362666   0.2889794  -0.0143045  )
        34           Cu  tau(  34) = (   0.3316032   0.5797384  -0.0143045  )
        35           Cu  tau(  35) = (   0.6683968   0.5797384  -0.0143045  )
        36           Cu  tau(  36) = (   1.0000000   0.5773503  -0.0123148  )
        37           C   tau(  37) = (   0.5000000   0.2886751   0.2446589  )
        38           O   tau(  38) = (   0.5000000   0.2886751   0.3945531  )

   Crystallographic axes

     site n.     atom                  positions (cryst. coord.)
         1           Cu  tau(   1) = (  0.0000000  0.0000000 -0.2982315  )
         2           Cu  tau(   2) = (  0.3333333  0.0000000 -0.2982315  )
         3           Cu  tau(   3) = (  0.6666667  0.0000000 -0.2982315  )
         4           Cu  tau(   4) = ( -0.0000001  0.3333335 -0.2982315  )
         5           Cu  tau(   5) = (  0.3333333  0.3333335 -0.2982315  )
         6           Cu  tau(   6) = (  0.6666666  0.3333335 -0.2982315  )
         7           Cu  tau(   7) = ( -0.0000002  0.6666670 -0.2982315  )
         8           Cu  tau(   8) = (  0.3333332  0.6666670 -0.2982315  )
         9           Cu  tau(   9) = (  0.6666665  0.6666670 -0.2982315  )
        10           Cu  tau(  10) = (  0.1117870  0.1117871 -0.2002423  )
        11           Cu  tau(  11) = (  0.4444223  0.1111555 -0.2003148  )
        12           Cu  tau(  12) = (  0.7764259  0.1117871 -0.2002423  )
        13           Cu  tau(  13) = (  0.1111554  0.4444225 -0.2003148  )
        14           Cu  tau(  14) = (  0.4444222  0.4444225 -0.2003148  )
        15           Cu  tau(  15) = (  0.7777092  0.4445816 -0.2003002  )
        16           Cu  tau(  16) = (  0.1117869  0.7764263 -0.2002423  )
        17           Cu  tau(  17) = (  0.4445812  0.7777097 -0.2003002  )
        18           Cu  tau(  18) = (  0.7777092  0.7777097 -0.2003002  )
        19           Cu  tau(  19) = ( -0.1108254  0.2216509 -0.1030941  )
        20           Cu  tau(  20) = (  0.2235271  0.2235272 -0.1011234  )
        21           Cu  tau(  21) = (  0.5529457  0.2235272 -0.1011234  )
        22           Cu  tau(  22) = ( -0.1109824  0.5554914 -0.1024382  )
        23           Cu  tau(  23) = (  0.2235270  0.5529461 -0.1011234  )
        24           Cu  tau(  24) = (  0.5554910  0.5554914 -0.1024382  )
        25           Cu  tau(  25) = ( -0.1108256  0.8891751 -0.1030941  )
        26           Cu  tau(  26) = (  0.2216506  0.8891751 -0.1030941  )
        27           Cu  tau(  27) = (  0.5554909  0.8890182 -0.1024382  )
        28           Cu  tau(  28) = (  0.0000000  0.0000000 -0.0050969  )
        29           Cu  tau(  29) = (  0.3336847 -0.0031089 -0.0051938  )
        30           Cu  tau(  30) = (  0.6694242 -0.0031089 -0.0051938  )
        31           Cu  tau(  31) = ( -0.0031090  0.3336849 -0.0051938  )
        32           Cu  tau(  32) = (  0.3333333  0.3333335  0.0007519  )
        33           Cu  tau(  33) = (  0.6694241  0.3336849 -0.0051938  )
        34           Cu  tau(  34) = ( -0.0031090  0.6694245 -0.0051938  )
        35           Cu  tau(  35) = (  0.3336846  0.6694245 -0.0051938  )
        36           Cu  tau(  36) = (  0.6666665  0.6666670 -0.0044714  )
        37           C   tau(  37) = (  0.3333333  0.3333335  0.0888336  )
        38           O   tau(  38) = (  0.3333333  0.3333335  0.1432589  )

     number of k points=    64  Marzari-Vanderbilt smearing, width (Ry)=  0.0073
                       cart. coord. in units 2pi/alat
        k(    1) = (   0.0000000   0.0000000   0.0000000), wk =   0.0312500
[...]
     atom   15 type  1   force =     0.00000002    0.00094710   -0.01717072
     atom   16 type  1   force =     0.00000005    0.00600716   -0.02420142
     atom   17 type  1   force =     0.00082027   -0.00047389   -0.01717062
     atom   18 type  1   force =    -0.00082033   -0.00047392   -0.01717062
     atom   19 type  1   force =     0.00000008    0.00456982    0.02701041
     atom   20 type  1   force =    -0.01505450   -0.00869144    0.00491674
     atom   21 type  1   force =     0.01505444   -0.00869144    0.00491677
     atom   22 type  1   force =     0.00656732   -0.00379159    0.03035065
     atom   23 type  1   force =    -0.00000003    0.01738358    0.00491686
     atom   24 type  1   force =    -0.00656729   -0.00379155    0.03035062
     atom   25 type  1   force =    -0.00395728   -0.00228518    0.02701046
     atom   26 type  1   force =     0.00395732   -0.00228511    0.02701043
     atom   27 type  1   force =    -0.00000005    0.00758285    0.03035056
     atom   28 type  1   force =     0.00000006    0.00000072    0.11700544
     atom   29 type  1   force =     0.01382389    0.02181140    0.14679415
     atom   30 type  1   force =    -0.01382398    0.02181140    0.14679417
     atom   31 type  1   force =     0.02580062    0.00106629    0.14679441
     atom   32 type  1   force =    -0.00000003   -0.00000016    0.01478136
     atom   33 type  1   force =    -0.02580060    0.00106632    0.14679443
     atom   34 type  1   force =     0.01197668   -0.02287779    0.14679410
     atom   35 type  1   force =    -0.01197668   -0.02287772    0.14679409
     atom   36 type  1   force =    -0.00000003   -0.00000050    0.12149249
     atom   37 type  2   force =     0.00000002   -0.00000002    0.81816379
     atom   38 type  3   force =    -0.00000001    0.00000004   -2.75147166
     The ionic contribution  to forces
     atom    1 type  1   force =     0.00000369    0.00005256   74.58040026
     atom    2 type  1   force =    -0.03568224   -0.00609329   74.43355469
     atom    3 type  1   force =     0.03567909   -0.00609123   74.43355412
     atom    4 type  1   force =    -0.02316171   -0.02782271   74.43357915
     atom    5 type  1   force =     0.00000029    0.00000735   74.43286398
     atom    6 type  1   force =     0.02316161   -0.02781888   74.43358036
     atom    7 type  1   force =     0.01252076    0.03391574   74.43357527
     atom    8 type  1   force =    -0.01251728    0.03391751   74.43357706
     atom    9 type  1   force =    -0.00000385   -0.00005631   74.40870986
     atom   10 type  1   force =    -0.06237940   -0.03595189  221.53579372
     atom   11 type  1   force =    -0.00000099    0.08020134  221.58112838
     atom   12 type  1   force =     0.06238044   -0.03594825  221.53579320
     atom   13 type  1   force =     0.06940152   -0.04006979  221.58114920
     atom   14 type  1   force =    -0.06939853   -0.04006702  221.58114862
     atom   15 type  1   force =    -0.00000321   -0.04543453  221.40482773
     atom   16 type  1   force =     0.00000397    0.07196620  221.53583024
     atom   17 type  1   force =    -0.03934908    0.02265182  221.40484378
     atom   18 type  1   force =     0.03934457    0.02265268  221.40484386
     atom   19 type  1   force =     0.00000337   -0.05443250  368.02952146
     atom   20 type  1   force =    -0.15352815   -0.08857749  370.66282392
     atom   21 type  1   force =     0.15352555   -0.08857473  370.66282342
     atom   22 type  1   force =    -0.05217827    0.03010696  368.89696468
     atom   23 type  1   force =     0.00000107    0.17726163  370.66281495
     atom   24 type  1   force =     0.05217743    0.03011059  368.89696420
     atom   25 type  1   force =     0.04719689    0.02719818  368.02951968
     atom   26 type  1   force =    -0.04719319    0.02719905  368.02951978
     atom   27 type  1   force =    -0.00000439   -0.06029989  368.89697007
     atom   28 type  1   force =     0.00000417    0.00004095  517.08009063
     atom   29 type  1   force =    -0.66897343   -0.89725859  515.73381391
     atom   30 type  1   force =     0.66897038   -0.89725681  515.73381573
     atom   31 type  1   force =    -1.11156921   -0.13068815  515.73379241
     atom   32 type  1   force =    -0.00000027    0.00001100  515.19557873
     atom   33 type  1   force =     1.11156932   -0.13068430  515.73379364
     atom   34 type  1   force =    -0.44259408    1.02794167  515.73378883
     atom   35 type  1   force =     0.44259709    1.02794375  515.73378826
     atom   36 type  1   force =    -0.00000387   -0.00005381  517.86885672
     atom   37 type  2   force =    -0.00000002    0.00000077  208.44520995
     atom   38 type  3   force =    -0.00000001    0.00000040  336.81226400
     The local contribution  to forces
     atom    1 type  1   force =    -0.00000379   -0.00005288  -74.46526307
     atom    2 type  1   force =     0.03622281    0.01335217  -74.32639434
     atom    3 type  1   force =    -0.03621955    0.01335013  -74.32639379
     atom    4 type  1   force =     0.02971861    0.02466153  -74.32641834
     atom    5 type  1   force =    -0.00000027   -0.00000704  -74.31496098
     atom    6 type  1   force =    -0.02971854    0.02465760  -74.32641950
     atom    7 type  1   force =    -0.00650439   -0.03801335  -74.32641487
     atom    8 type  1   force =     0.00650086   -0.03801513  -74.32641657
     atom    9 type  1   force =     0.00000390    0.00005641  -74.29864583
     atom   10 type  1   force =     0.06715917    0.03871160 -221.51108495
     atom   11 type  1   force =     0.00000109   -0.08095517 -221.54839723
     atom   12 type  1   force =    -0.06716032    0.03870797 -221.51108443
     atom   13 type  1   force =    -0.07005440    0.04044700 -221.54841800
     atom   14 type  1   force =     0.07005149    0.04044410 -221.54841734
     atom   15 type  1   force =     0.00000315    0.04437455 -221.38773266
     atom   16 type  1   force =    -0.00000401   -0.07748570 -221.51112142
     atom   17 type  1   force =     0.03843100   -0.02212208 -221.38774874
     atom   18 type  1   force =    -0.03842643   -0.02212286 -221.38774875
     atom   19 type  1   force =    -0.00000350    0.05012786 -368.05709249
     atom   20 type  1   force =     0.16734361    0.09655403 -370.66848811
     atom   21 type  1   force =    -0.16734087    0.09655130 -370.66848766
     atom   22 type  1   force =     0.04536995   -0.02617620 -368.92840536
     atom   23 type  1   force =    -0.00000100   -0.19321449 -370.66847929
     atom   24 type  1   force =    -0.04536916   -0.02617994 -368.92840485
     atom   25 type  1   force =    -0.04346883   -0.02504592 -368.05709082
     atom   26 type  1   force =     0.04346507   -0.02504684 -368.05709082
     atom   27 type  1   force =     0.00000440    0.05243811 -368.92841065
     atom   28 type  1   force =    -0.00000421   -0.00004135 -517.18004958
     atom   29 type  1   force =     0.65541026    0.87620850 -515.86334719
     atom   30 type  1   force =    -0.65540713    0.87620679 -515.86334905
     atom   31 type  1   force =     1.08655793    0.12946724 -515.86332616
     atom   32 type  1   force =     0.00000033   -0.00001074 -515.23353073
     atom   33 type  1   force =    -1.08655813    0.12946338 -515.86332744
     atom   34 type  1   force =     0.43114612   -1.00567056 -515.86332229
     atom   35 type  1   force =    -0.43114904   -1.00567275 -515.86332175
     atom   36 type  1   force =     0.00000381    0.00005385 -517.97294104
     atom   37 type  2   force =     0.00000002   -0.00000079 -209.22106415
     atom   38 type  3   force =     0.00000003   -0.00000043 -334.11793160
     The core correction contribution to forces
     atom    1 type  1   force =    -0.00000001   -0.00000007    0.01670737
     atom    2 type  1   force =    -0.00011434    0.00014317    0.01691476
     atom    3 type  1   force =     0.00011434    0.00014317    0.01691476
     atom    4 type  1   force =     0.00006687   -0.00017064    0.01691474
     atom    5 type  1   force =    -0.00000000   -0.00000001    0.01634445
     atom    6 type  1   force =    -0.00006687   -0.00017064    0.01691473
     atom    7 type  1   force =     0.00018121    0.00002745    0.01691473
     atom    8 type  1   force =    -0.00018122    0.00002745    0.01691472
     atom    9 type  1   force =     0.00000001    0.00000005    0.01695009
     atom   10 type  1   force =     0.00038108    0.00021995   -0.00039841
     atom   11 type  1   force =    -0.00000000   -0.00039009   -0.00105692
     atom   12 type  1   force =    -0.00038108    0.00021995   -0.00039841
     atom   13 type  1   force =    -0.00033777    0.00019501   -0.00105694
     atom   14 type  1   force =     0.00033776    0.00019500   -0.00105694
     atom   15 type  1   force =     0.00000001    0.00009182    0.00011697
     atom   16 type  1   force =    -0.00000000   -0.00043997   -0.00039846
     atom   17 type  1   force =     0.00007952   -0.00004583    0.00011695
     atom   18 type  1   force =    -0.00007952   -0.00004583    0.00011695
     atom   19 type  1   force =    -0.00000001   -0.00016763    0.00050827
     atom   20 type  1   force =     0.00121977    0.00070418    0.00065605
     atom   21 type  1   force =    -0.00121977    0.00070417    0.00065605
     atom   22 type  1   force =     0.00027072   -0.00015630    0.00113076
     atom   23 type  1   force =     0.00000000   -0.00140847    0.00065606
     atom   24 type  1   force =    -0.00027072   -0.00015631    0.00113076
     atom   25 type  1   force =     0.00014511    0.00008386    0.00050828
     atom   26 type  1   force =    -0.00014512    0.00008386    0.00050828
     atom   27 type  1   force =     0.00000000    0.00031267    0.00113075
     atom   28 type  1   force =    -0.00000001   -0.00000006   -0.01722831
     atom   29 type  1   force =    -0.00031913   -0.00067132   -0.01713200
     atom   30 type  1   force =     0.00031913   -0.00067132   -0.01713200
     atom   31 type  1   force =    -0.00074089    0.00005926   -0.01713198
     atom   32 type  1   force =    -0.00000000    0.00000001    0.02381879
     atom   33 type  1   force =     0.00074089    0.00005925   -0.01713198
     atom   34 type  1   force =    -0.00042176    0.00061207   -0.01713197
     atom   35 type  1   force =     0.00042176    0.00061206   -0.01713198
     atom   36 type  1   force =     0.00000000    0.00000006   -0.01765337
     atom   37 type  2   force =     0.00000001    0.00000005   -0.00475130
     atom   38 type  3   force =     0.00000000   -0.00000000    0.01849440
     The Hubbard contrib.    to forces
     atom    1 type  1   force =     0.00000000    0.00000000    0.00000000
     atom    2 type  1   force =     0.00000000    0.00000000    0.00000000
     atom    3 type  1   force =     0.00000000    0.00000000    0.00000000
     atom    4 type  1   force =     0.00000000    0.00000000    0.00000000
     atom    5 type  1   force =     0.00000000    0.00000000    0.00000000
     atom    6 type  1   force =     0.00000000    0.00000000    0.00000000
     atom    7 type  1   force =     0.00000000    0.00000000    0.00000000
     atom    8 type  1   force =     0.00000000    0.00000000    0.00000000
     atom    9 type  1   force =     0.00000000    0.00000000    0.00000000
     atom   10 type  1   force =     0.00000000    0.00000000    0.00000000
     atom   11 type  1   force =     0.00000000    0.00000000    0.00000000
     atom   12 type  1   force =     0.00000000    0.00000000    0.00000000
     atom   13 type  1   force =     0.00000000    0.00000000    0.00000000
     atom   14 type  1   force =     0.00000000    0.00000000    0.00000000
     atom   15 type  1   force =     0.00000000    0.00000000    0.00000000
     atom   16 type  1   force =     0.00000000    0.00000000    0.00000000
     atom   17 type  1   force =     0.00000000    0.00000000    0.00000000
     atom   18 type  1   force =     0.00000000    0.00000000    0.00000000
     atom   19 type  1   force =     0.00000000    0.00000000    0.00000000
     atom   20 type  1   force =     0.00000000    0.00000000    0.00000000
     atom   21 type  1   force =     0.00000000    0.00000000    0.00000000
     atom   22 type  1   force =     0.00000000    0.00000000    0.00000000
     atom   23 type  1   force =     0.00000000    0.00000000    0.00000000
     atom   24 type  1   force =     0.00000000    0.00000000    0.00000000
     atom   25 type  1   force =     0.00000000    0.00000000    0.00000000
     atom   26 type  1   force =     0.00000000    0.00000000    0.00000000
     atom   27 type  1   force =     0.00000000    0.00000000    0.00000000
     atom   28 type  1   force =     0.00000000    0.00000000    0.00000000
     atom   29 type  1   force =     0.00000000    0.00000000    0.00000000
     atom   30 type  1   force =     0.00000000    0.00000000    0.00000000
     atom   31 type  1   force =     0.00000000    0.00000000    0.00000000
     atom   32 type  1   force =     0.00000000    0.00000000    0.00000000
     atom   33 type  1   force =     0.00000000    0.00000000    0.00000000
     atom   34 type  1   force =     0.00000000    0.00000000    0.00000000
     atom   35 type  1   force =     0.00000000    0.00000000    0.00000000
     atom   36 type  1   force =     0.00000000    0.00000000    0.00000000
     atom   37 type  2   force =     0.00000000    0.00000000    0.00000000
     atom   38 type  3   force =     0.00000000    0.00000000    0.00000000
     The SCF correction term to forces
     atom    1 type  1   force =     0.00000000    0.00000000    0.00000000
     atom    2 type  1   force =     0.00000000    0.00000000    0.00000000
     atom    3 type  1   force =     0.00000000    0.00000000    0.00000000
     atom    4 type  1   force =     0.00000000    0.00000000    0.00000000
     atom    5 type  1   force =     0.00000000    0.00000000    0.00000000
     atom    6 type  1   force =     0.00000000    0.00000000    0.00000000
     atom    7 type  1   force =     0.00000000    0.00000000    0.00000000
     atom    8 type  1   force =     0.00000000    0.00000000    0.00000000
     atom    9 type  1   force =     0.00000000    0.00000000    0.00000000
     atom   10 type  1   force =     0.00000044    0.00000017    0.00000281
     atom   11 type  1   force =    -0.00000008    0.00000017    0.00000286
     atom   12 type  1   force =    -0.00000037    0.00000020    0.00000275
     atom   13 type  1   force =     0.00000015   -0.00000042    0.00000287
     atom   14 type  1   force =    -0.00000022   -0.00000031    0.00000276
     atom   15 type  1   force =    -0.00000002    0.00000011    0.00000253
     atom   16 type  1   force =     0.00000005   -0.00000016    0.00000277
     atom   17 type  1   force =     0.00000027    0.00000010    0.00000260
     atom   18 type  1   force =    -0.00000030   -0.00000003    0.00000259
     atom   19 type  1   force =     0.00000014    0.00000037    0.00000568
     atom   20 type  1   force =     0.00000038    0.00000003    0.00000607
     atom   21 type  1   force =    -0.00000047    0.00000004    0.00000610
     atom   22 type  1   force =     0.00000033   -0.00000025    0.00000577
     atom   23 type  1   force =    -0.00000013   -0.00000055    0.00000626
     atom   24 type  1   force =    -0.00000025   -0.00000013    0.00000572
     atom   25 type  1   force =    -0.00000054   -0.00000011    0.00000581
     atom   26 type  1   force =     0.00000056   -0.00000005    0.00000569
     atom   27 type  1   force =     0.00000002    0.00000059    0.00000574
     atom   28 type  1   force =     0.00000003    0.00000009    0.00000249
     atom   29 type  1   force =     0.00000041    0.00000074    0.00000180
     atom   30 type  1   force =    -0.00000031    0.00000065    0.00000182
     atom   31 type  1   force =     0.00000080   -0.00000010    0.00000182
     atom   32 type  1   force =    -0.00000008   -0.00000014    0.00000125
     atom   33 type  1   force =    -0.00000069   -0.00000009    0.00000189
     atom   34 type  1   force =     0.00000028   -0.00000062    0.00000189
     atom   35 type  1   force =    -0.00000042   -0.00000052    0.00000201
     atom   36 type  1   force =     0.00000011    0.00000011    0.00000213
     atom   37 type  2   force =    -0.00000001    0.00000000   -0.00000068
     atom   38 type  3   force =    -0.00000001    0.00000001    0.00000078

     Total force =     0.053896     Total SCF correction =     0.000020

     Writing all to output data dir ./tmp/Cu-vib.save/

     General routines

     Parallel routines

     PAW routines

   This run was terminated on:   8:24: 0   6Oct2024

   JOB DONE.