     Program PWSCF v.7.2 starts on 15Oct2024 at 17:41: 3

     Reading input from Cu-vib.pwi
Warning: card &CELL ignored
Warning: card / ignored

     Current dimensions of program PWSCF are:
     Max number of different atomic species (ntypx) = 10
     Max number of k-points (npk) =  40000
     Max angular momentum in pseudopotentials (lmaxx) =  4
     file Cu.pbe-dn-kjpaw_psl.1.0.0.UPF: wavefunction(s)  4S 3D renormalized
     file C.pbe-n-kjpaw_psl.1.0.0.UPF: wavefunction(s)  2S 2P renormalized
     file O.pbe-n-kjpaw_psl.1.0.0.UPF: wavefunction(s)  2S 2P renormalized

     IMPORTANT: XC functional enforced from input :
     Exchange-correlation= BEEF-VDW
                           (   1   4  43  14   2   0   0)
     Any further DFT definition will be discarded
     Please, verify this is what you really want

     K-points division:     npool     =       2
     R & G space division:  proc/nbgrp/npool/nimage =      96
     Subspace diagonalization in iterative solution of the eigenvalue problem:
     one sub-group per band group will be used

     Using Slab Decomposition

     Title:
     Cu-vib

     bravais-lattice index     =            0
     lattice parameter (alat)  =      14.6292  a.u.
     unit-cell volume          =    7467.4528 (a.u.)^3
     number of atoms/cell      =           38
     number of atomic types    =            3
     number of electrons       =       406.00
     number of Kohn-Sham states=          244
     kinetic-energy cutoff     =      62.4738  Ry
     charge density cutoff     =     624.7385  Ry
     scf convergence threshold =      7.3E-12
     mixing beta               =       0.3333
     number of iterations used =           12  plain     mixing
     Exchange-correlation= BEEF-VDW
                           (   1   4  43  14   2   0   0)

     Effective Screening Medium Method
     Boundary Conditions: Vacuum-Slab-Metal
     total charge in unit cell        =   0.0000
     grid points for fit at edges     =        4

     celldm(1)=  14.629161  celldm(2)=   0.000000  celldm(3)=   0.000000
     celldm(4)=   0.000000  celldm(5)=   0.000000  celldm(6)=   0.000000

     crystal axes: (cart. coord. in units of alat)
               a(1) = (   1.000000   0.000000   0.000000 )
               a(2) = (   0.500000   0.866025   0.000000 )
               a(3) = (   0.000000   0.000000   2.754126 )

     reciprocal axes: (cart. coord. in units 2 pi/alat)
               b(1) = (  1.000000 -0.577351  0.000000 )
               b(2) = (  0.000000  1.154701  0.000000 )
               b(3) = (  0.000000  0.000000  0.363092 )

     PseudoPot. # 1 for Cu read from file:
     /home/k0227/k022716/QE/pseudo/Cu.pbe-dn-kjpaw_psl.1.0.0.UPF
     MD5 check sum: 67c40f9e1593dc2d139023e70404cc2a
     Pseudo is Projector augmented-wave + core cor, Zval = 11.0
     Generated using "atomic" code by A. Dal Corso  v.6.1 svn rev. 13369
     Shape of augmentation charge: PSQ
     Using radial grid of 1199 points,  6 beta functions with:
                l(1) =   0
                l(2) =   0
                l(3) =   1
                l(4) =   1
                l(5) =   2
                l(6) =   2
     Q(r) pseudized with 0 coefficients

     PseudoPot. # 2 for C  read from file:
     /home/k0227/k022716/QE/pseudo/C.pbe-n-kjpaw_psl.1.0.0.UPF
     MD5 check sum: 92a742b3ac0ce1af44b5aa3f9352ca21
     Pseudo is Projector augmented-wave + core cor, Zval =  4.0
     Generated using "atomic" code by A. Dal Corso  v.6.1 svn rev. 13369
     Shape of augmentation charge: PSQ
     Using radial grid of 1073 points,  4 beta functions with:
                l(1) =   0
                l(2) =   0
                l(3) =   1
                l(4) =   1
     Q(r) pseudized with 0 coefficients

     PseudoPot. # 3 for O  read from file:
     /home/k0227/k022716/QE/pseudo/O.pbe-n-kjpaw_psl.1.0.0.UPF
     MD5 check sum: c61d840054b6bba219e553541e327118
     Pseudo is Projector augmented-wave + core cor, Zval =  6.0
     Generated using "atomic" code by A. Dal Corso  v.6.1 svn rev. 13369
     Shape of augmentation charge: PSQ
     Using radial grid of 1095 points,  4 beta functions with:
                l(1) =   0
                l(2) =   0
                l(3) =   1
                l(4) =   1
     Q(r) pseudized with 0 coefficients

     atomic species   valence    mass     pseudopotential
        Cu            11.00    63.54600     Cu( 1.00)
        C              4.00    12.01100     C ( 1.00)
        O              6.00    15.99900     O ( 1.00)

     No symmetry found

                                    s                        frac. trans.

      isym =  1     identity

 cryst.   s( 1) = (     1          0          0      )
                  (     0          1          0      )
                  (     0          0          1      )

 cart.    s( 1) = (  1.0000000  0.0000000  0.0000000 )
                  (  0.0000000  1.0000000  0.0000000 )
                  (  0.0000000  0.0000000  1.0000000 )

   Cartesian axes

     site n.     atom                  positions (alat units)
         1           Cu  tau(   1) = (   0.0000000   0.0000000  -0.8213672  )
         2           Cu  tau(   2) = (   0.3333333   0.0000000  -0.8213672  )
         3           Cu  tau(   3) = (   0.6666667   0.0000000  -0.8213672  )
         4           Cu  tau(   4) = (   0.1666667   0.2886751  -0.8213672  )
         5           Cu  tau(   5) = (   0.5000000   0.2886751  -0.8213672  )
         6           Cu  tau(   6) = (   0.8333334   0.2886751  -0.8213672  )
         7           Cu  tau(   7) = (   0.3333333   0.5773503  -0.8213672  )
         8           Cu  tau(   8) = (   0.6666667   0.5773503  -0.8213672  )
         9           Cu  tau(   9) = (   1.0000000   0.5773503  -0.8213672  )
        10           Cu  tau(  10) = (   0.1676727   0.0968059  -0.5514396  )
        11           Cu  tau(  11) = (   0.5000000   0.0962354  -0.5516367  )
        12           Cu  tau(  12) = (   0.8323273   0.0968059  -0.5514396  )
        13           Cu  tau(  13) = (   0.3333423   0.3848950  -0.5516367  )
        14           Cu  tau(  14) = (   0.6666577   0.3848950  -0.5516367  )
        15           Cu  tau(  15) = (   1.0000000   0.3850131  -0.5516280  )
        16           Cu  tau(  16) = (   0.5000000   0.6724137  -0.5514396  )
        17           Cu  tau(  17) = (   0.8334311   0.6735189  -0.5516280  )
        18           Cu  tau(  18) = (   1.1665689   0.6735189  -0.5516280  )
        19           Cu  tau(  19) = (  -0.0000000   0.1920201  -0.2839447  )
        20           Cu  tau(  20) = (   0.3352745   0.1935708  -0.2785144  )
        21           Cu  tau(  21) = (   0.6647256   0.1935708  -0.2785144  )
        22           Cu  tau(  22) = (   0.1667977   0.4810496  -0.2820819  )
        23           Cu  tau(  23) = (   0.5000000   0.4788838  -0.2785144  )
        24           Cu  tau(  24) = (   0.8332023   0.4810496  -0.2820820  )
        25           Cu  tau(  25) = (   0.3337057   0.7700154  -0.2839447  )
        26           Cu  tau(  26) = (   0.6662943   0.7700154  -0.2839447  )
        27           Cu  tau(  27) = (   1.0000000   0.7699517  -0.2820820  )
        28           Cu  tau(  28) = (  -0.0000000   0.0000000  -0.0141647  )
        29           Cu  tau(  29) = (   0.3320845  -0.0026669  -0.0142096  )
        30           Cu  tau(  30) = (   0.6679155  -0.0026669  -0.0142096  )
        31           Cu  tau(  31) = (   0.1637326   0.2889271  -0.0142096  )
        32           Cu  tau(  32) = (   0.5000000   0.2886751   0.0020474  )
        33           Cu  tau(  33) = (   0.8362674   0.2889271  -0.0142096  )
        34           Cu  tau(  34) = (   0.3316481   0.5797653  -0.0142096  )
        35           Cu  tau(  35) = (   0.6683519   0.5797653  -0.0142096  )
        36           Cu  tau(  36) = (   1.0000000   0.5773503  -0.0124621  )
        37           C   tau(  37) = (   0.5000000   0.2886751   0.2459497  )
        38           O   tau(  38) = (   0.5000000   0.2886751   0.3932598  )

   Crystallographic axes

     site n.     atom                  positions (cryst. coord.)
         1           Cu  tau(   1) = (  0.0000000  0.0000000 -0.2982315  )
         2           Cu  tau(   2) = (  0.3333333  0.0000000 -0.2982315  )
         3           Cu  tau(   3) = (  0.6666667  0.0000000 -0.2982315  )
         4           Cu  tau(   4) = ( -0.0000001  0.3333335 -0.2982315  )
         5           Cu  tau(   5) = (  0.3333333  0.3333335 -0.2982315  )
         6           Cu  tau(   6) = (  0.6666666  0.3333335 -0.2982315  )
         7           Cu  tau(   7) = ( -0.0000002  0.6666670 -0.2982315  )
         8           Cu  tau(   8) = (  0.3333332  0.6666670 -0.2982315  )
         9           Cu  tau(   9) = (  0.6666665  0.6666670 -0.2982315  )
        10           Cu  tau(  10) = (  0.1117818  0.1117819 -0.2002231  )
        11           Cu  tau(  11) = (  0.4444385  0.1111231 -0.2002946  )
        12           Cu  tau(  12) = (  0.7764364  0.1117819 -0.2002231  )
        13           Cu  tau(  13) = (  0.1111230  0.4444387 -0.2002946  )
        14           Cu  tau(  14) = (  0.4444384  0.4444387 -0.2002946  )
        15           Cu  tau(  15) = (  0.7777125  0.4445750 -0.2002915  )
        16           Cu  tau(  16) = (  0.1117816  0.7764368 -0.2002231  )
        17           Cu  tau(  17) = (  0.4445746  0.7777130 -0.2002915  )
        18           Cu  tau(  18) = (  0.7777124  0.7777130 -0.2002915  )
        19           Cu  tau(  19) = ( -0.1108629  0.2217258 -0.1030979  )
        20           Cu  tau(  20) = (  0.2235163  0.2235164 -0.1011262  )
        21           Cu  tau(  21) = (  0.5529674  0.2235164 -0.1011262  )
        22           Cu  tau(  22) = ( -0.1109366  0.5554685 -0.1024216  )
        23           Cu  tau(  23) = (  0.2235162  0.5529677 -0.1011262  )
        24           Cu  tau(  24) = (  0.5554681  0.5554685 -0.1024216  )
        25           Cu  tau(  25) = ( -0.1108631  0.8891376 -0.1030979  )
        26           Cu  tau(  26) = (  0.2217255  0.8891376 -0.1030979  )
        27           Cu  tau(  27) = (  0.5554680  0.8890640 -0.1024216  )
        28           Cu  tau(  28) = ( -0.0000000  0.0000000 -0.0051431  )
        29           Cu  tau(  29) = (  0.3336243 -0.0030795 -0.0051594  )
        30           Cu  tau(  30) = (  0.6694553 -0.0030795 -0.0051594  )
        31           Cu  tau(  31) = ( -0.0030796  0.3336244 -0.0051594  )
        32           Cu  tau(  32) = (  0.3333333  0.3333335  0.0007434  )
        33           Cu  tau(  33) = (  0.6694552  0.3336244 -0.0051594  )
        34           Cu  tau(  34) = ( -0.0030796  0.6694556 -0.0051594  )
        35           Cu  tau(  35) = (  0.3336241  0.6694556 -0.0051594  )
        36           Cu  tau(  36) = (  0.6666665  0.6666670 -0.0045249  )
        37           C   tau(  37) = (  0.3333333  0.3333335  0.0893023  )
        38           O   tau(  38) = (  0.3333333  0.3333335  0.1427893  )

     number of k points=    64  Marzari-Vanderbilt smearing, width (Ry)=  0.0073
                       cart. coord. in units 2pi/alat
        k(    1) = (   0.0000000   0.0000000   0.0000000), wk =   0.0312500
[...]
     atom   15 type  1   force =    -0.00000005    0.00093646   -0.01710640
     atom   16 type  1   force =     0.00000003    0.00589792   -0.02409198
     atom   17 type  1   force =     0.00081104   -0.00046868   -0.01710633
     atom   18 type  1   force =    -0.00081106   -0.00046865   -0.01710633
     atom   19 type  1   force =     0.00000004    0.00444956    0.02709526
     atom   20 type  1   force =    -0.01483274   -0.00856333    0.00530620
     atom   21 type  1   force =     0.01483271   -0.00856332    0.00530617
     atom   22 type  1   force =     0.00657191   -0.00379424    0.03019628
     atom   23 type  1   force =     0.00000001    0.01712753    0.00530622
     atom   24 type  1   force =    -0.00657192   -0.00379421    0.03019626
     atom   25 type  1   force =    -0.00385309   -0.00222509    0.02709534
     atom   26 type  1   force =     0.00385312   -0.00222508    0.02709530
     atom   27 type  1   force =    -0.00000003    0.00758813    0.03019623
     atom   28 type  1   force =     0.00000004    0.00000066    0.11577284
     atom   29 type  1   force =     0.01373227    0.02129309    0.14614433
     atom   30 type  1   force =    -0.01373231    0.02129310    0.14614435
     atom   31 type  1   force =     0.02530593    0.00124613    0.14614458
     atom   32 type  1   force =     0.00000001   -0.00000015    0.02343158
     atom   33 type  1   force =    -0.02530598    0.00124616    0.14614458
     atom   34 type  1   force =     0.01157366   -0.02253924    0.14614422
     atom   35 type  1   force =    -0.01157363   -0.02253924    0.14614423
     atom   36 type  1   force =    -0.00000005   -0.00000052    0.12070103
     atom   37 type  2   force =     0.00000002   -0.00000002    0.77847641
     atom   38 type  3   force =    -0.00000007    0.00000009   -2.76904426
     The ionic contribution  to forces
     atom    1 type  1   force =     0.00000363    0.00005265   74.57900598
     atom    2 type  1   force =    -0.03535927   -0.00360961   74.43257065
     atom    3 type  1   force =     0.03535619   -0.00360750   74.43257020
     atom    4 type  1   force =    -0.02084934   -0.02878487   74.43259520
     atom    5 type  1   force =     0.00000030    0.00000732   74.43712579
     atom    6 type  1   force =     0.02084923   -0.02878115   74.43259646
     atom    7 type  1   force =     0.01451019    0.03239424   74.43259130
     atom    8 type  1   force =    -0.01450675    0.03239600   74.43259302
     atom    9 type  1   force =    -0.00000381   -0.00005630   74.40656994
     atom   10 type  1   force =    -0.06066981   -0.03496446  221.53987161
     atom   11 type  1   force =    -0.00000085    0.08749107  221.58572043
     atom   12 type  1   force =     0.06067064   -0.03496088  221.53987176
     atom   13 type  1   force =     0.07571444   -0.04371454  221.58574134
     atom   14 type  1   force =    -0.07571155   -0.04371195  221.58574043
     atom   15 type  1   force =    -0.00000311   -0.03994743  221.39919132
     atom   16 type  1   force =     0.00000385    0.06999169  221.53990819
     atom   17 type  1   force =    -0.03459692    0.01990811  221.39920756
     atom   18 type  1   force =     0.03459251    0.01990893  221.39920776
     atom   19 type  1   force =     0.00000353   -0.05914678  368.01715166
     atom   20 type  1   force =    -0.14959780   -0.08630811  370.65647990
     atom   21 type  1   force =     0.14959503   -0.08630500  370.65647877
     atom   22 type  1   force =    -0.05430699    0.03133575  368.91327463
     atom   23 type  1   force =     0.00000130    0.17272304  370.65647111
     atom   24 type  1   force =     0.05430596    0.03133949  368.91327357
     atom   25 type  1   force =     0.05127978    0.02955519  368.01715069
     atom   26 type  1   force =    -0.05127598    0.02955619  368.01714935
     atom   27 type  1   force =    -0.00000457   -0.06275799  368.91327950
     atom   28 type  1   force =     0.00000430    0.00004102  517.00270974
     atom   29 type  1   force =    -0.65727358   -0.90206512  515.76071261
     atom   30 type  1   force =     0.65727046   -0.90206371  515.76071383
     atom   31 type  1   force =    -1.10988199   -0.11815238  515.76069156
     atom   32 type  1   force =    -0.00000040    0.00001166  515.21755568
     atom   33 type  1   force =     1.10988220   -0.11814809  515.76069154
     atom   34 type  1   force =    -0.45260659    1.02021242  515.76068764
     atom   35 type  1   force =     0.45260973    1.02021418  515.76068659
     atom   36 type  1   force =    -0.00000404   -0.00005409  517.79369207
     atom   37 type  2   force =    -0.00000015    0.00000084  208.06706152
     atom   38 type  3   force =     0.00000022    0.00000018  337.16287739
     The local contribution  to forces
     atom    1 type  1   force =    -0.00000366   -0.00005290  -74.46420323
     atom    2 type  1   force =     0.03584295    0.01076992  -74.32545233
     atom    3 type  1   force =    -0.03583986    0.01076784  -74.32545188
     atom    4 type  1   force =     0.02729236    0.02562361  -74.32547644
     atom    5 type  1   force =    -0.00000029   -0.00000722  -74.31900428
     atom    6 type  1   force =    -0.02729223    0.02561987  -74.32547769
     atom    7 type  1   force =    -0.00855085   -0.03639325  -74.32547305
     atom    8 type  1   force =     0.00854738   -0.03639501  -74.32547471
     atom    9 type  1   force =     0.00000383    0.00005647  -74.29652070
     atom   10 type  1   force =     0.06537215    0.03767939 -221.51540666
     atom   11 type  1   force =     0.00000086   -0.08835661 -221.55295968
     atom   12 type  1   force =    -0.06537299    0.03767576 -221.51540681
     atom   13 type  1   force =    -0.07646409    0.04414739 -221.55298051
     atom   14 type  1   force =     0.07646112    0.04414478 -221.55297956
     atom   15 type  1   force =     0.00000315    0.03894595 -221.38220158
     atom   16 type  1   force =    -0.00000385   -0.07542151 -221.51544314
     atom   17 type  1   force =     0.03372953   -0.01940739 -221.38221775
     atom   18 type  1   force =    -0.03372516   -0.01940822 -221.38221791
     atom   19 type  1   force =    -0.00000355    0.05482279 -368.04475347
     atom   20 type  1   force =     0.16320864    0.09416640 -370.66235936
     atom   21 type  1   force =    -0.16320585    0.09416328 -370.66235822
     atom   22 type  1   force =     0.04743980   -0.02737100 -368.94458608
     atom   23 type  1   force =    -0.00000131   -0.18843965 -370.66235062
     atom   24 type  1   force =    -0.04743873   -0.02737477 -368.94458495
     atom   25 type  1   force =    -0.04753510   -0.02739320 -368.04475264
     atom   26 type  1   force =     0.04753128   -0.02739418 -368.04475125
     atom   27 type  1   force =     0.00000455    0.05482830 -368.94459087
     atom   28 type  1   force =    -0.00000430   -0.00004127 -517.10127520
     atom   29 type  1   force =     0.64391515    0.88149251 -515.88974326
     atom   30 type  1   force =    -0.64391204    0.88149112 -515.88974446
     atom   31 type  1   force =     1.08538659    0.11686998 -515.88972258
     atom   32 type  1   force =     0.00000040   -0.00001147 -515.26117766
     atom   33 type  1   force =    -1.08538678    0.11686564 -515.88972256
     atom   34 type  1   force =     0.44146966   -0.99835743 -515.88971829
     atom   35 type  1   force =    -0.44147275   -0.99835919 -515.88971731
     atom   36 type  1   force =     0.00000402    0.00005422 -517.89672309
     atom   37 type  2   force =     0.00000012   -0.00000084 -208.88542028
     atom   38 type  3   force =    -0.00000017   -0.00000024 -334.37101880
     The core correction contribution to forces
     atom    1 type  1   force =    -0.00000000   -0.00000007    0.01670205
     atom    2 type  1   force =    -0.00012234    0.00013202    0.01690375
     atom    3 type  1   force =     0.00012235    0.00013202    0.01690374
     atom    4 type  1   force =     0.00005321   -0.00017199    0.01690372
     atom    5 type  1   force =     0.00000000   -0.00000001    0.01631827
     atom    6 type  1   force =    -0.00005321   -0.00017200    0.01690372
     atom    7 type  1   force =     0.00017556    0.00003997    0.01690372
     atom    8 type  1   force =    -0.00017557    0.00003996    0.01690371
     atom    9 type  1   force =     0.00000001    0.00000005    0.01694485
     atom   10 type  1   force =     0.00037989    0.00021926   -0.00038295
     atom   11 type  1   force =     0.00000000   -0.00040283   -0.00104372
     atom   12 type  1   force =    -0.00037989    0.00021926   -0.00038295
     atom   13 type  1   force =    -0.00034881    0.00020138   -0.00104374
     atom   14 type  1   force =     0.00034880    0.00020138   -0.00104374
     atom   15 type  1   force =     0.00000001    0.00008727    0.00011945
     atom   16 type  1   force =    -0.00000000   -0.00043859   -0.00038300
     atom   17 type  1   force =     0.00007559   -0.00004356    0.00011942
     atom   18 type  1   force =    -0.00007558   -0.00004356    0.00011943
     atom   19 type  1   force =    -0.00000001   -0.00015724    0.00047953
     atom   20 type  1   force =     0.00121330    0.00070044    0.00064027
     atom   21 type  1   force =    -0.00121330    0.00070043    0.00064027
     atom   22 type  1   force =     0.00027324   -0.00015776    0.00111170
     atom   23 type  1   force =    -0.00000000   -0.00140099    0.00064028
     atom   24 type  1   force =    -0.00027325   -0.00015776    0.00111170
     atom   25 type  1   force =     0.00013612    0.00007866    0.00047954
     atom   26 type  1   force =    -0.00013612    0.00007866    0.00047953
     atom   27 type  1   force =     0.00000000    0.00031559    0.00111170
     atom   28 type  1   force =    -0.00000000   -0.00000006   -0.01719073
     atom   29 type  1   force =    -0.00035566   -0.00069965   -0.01715435
     atom   30 type  1   force =     0.00035566   -0.00069965   -0.01715436
     atom   31 type  1   force =    -0.00078369    0.00004179   -0.01715434
     atom   32 type  1   force =    -0.00000000    0.00000001    0.02279468
     atom   33 type  1   force =     0.00078369    0.00004178   -0.01715434
     atom   34 type  1   force =    -0.00042803    0.00065787   -0.01715433
     atom   35 type  1   force =     0.00042803    0.00065787   -0.01715433
     atom   36 type  1   force =     0.00000000    0.00000006   -0.01764754
     atom   37 type  2   force =     0.00000001    0.00000005   -0.00299476
     atom   38 type  3   force =    -0.00000000   -0.00000000    0.01753888
     The Hubbard contrib.    to forces
     atom    1 type  1   force =     0.00000000    0.00000000    0.00000000
     atom    2 type  1   force =     0.00000000    0.00000000    0.00000000
     atom    3 type  1   force =     0.00000000    0.00000000    0.00000000
     atom    4 type  1   force =     0.00000000    0.00000000    0.00000000
     atom    5 type  1   force =     0.00000000    0.00000000    0.00000000
     atom    6 type  1   force =     0.00000000    0.00000000    0.00000000
     atom    7 type  1   force =     0.00000000    0.00000000    0.00000000
     atom    8 type  1   force =     0.00000000    0.00000000    0.00000000
     atom    9 type  1   force =     0.00000000    0.00000000    0.00000000
     atom   10 type  1   force =     0.00000000    0.00000000    0.00000000
     atom   11 type  1   force =     0.00000000    0.00000000    0.00000000
     atom   12 type  1   force =     0.00000000    0.00000000    0.00000000
     atom   13 type  1   force =     0.00000000    0.00000000    0.00000000
     atom   14 type  1   force =     0.00000000    0.00000000    0.00000000
     atom   15 type  1   force =     0.00000000    0.00000000    0.00000000
     atom   16 type  1   force =     0.00000000    0.00000000    0.00000000
     atom   17 type  1   force =     0.00000000    0.00000000    0.00000000
     atom   18 type  1   force =     0.00000000    0.00000000    0.00000000
     atom   19 type  1   force =     0.00000000    0.00000000    0.00000000
     atom   20 type  1   force =     0.00000000    0.00000000    0.00000000
     atom   21 type  1   force =     0.00000000    0.00000000    0.00000000
     atom   22 type  1   force =     0.00000000    0.00000000    0.00000000
     atom   23 type  1   force =     0.00000000    0.00000000    0.00000000
     atom   24 type  1   force =     0.00000000    0.00000000    0.00000000
     atom   25 type  1   force =     0.00000000    0.00000000    0.00000000
     atom   26 type  1   force =     0.00000000    0.00000000    0.00000000
     atom   27 type  1   force =     0.00000000    0.00000000    0.00000000
     atom   28 type  1   force =     0.00000000    0.00000000    0.00000000
     atom   29 type  1   force =     0.00000000    0.00000000    0.00000000
     atom   30 type  1   force =     0.00000000    0.00000000    0.00000000
     atom   31 type  1   force =     0.00000000    0.00000000    0.00000000
     atom   32 type  1   force =     0.00000000    0.00000000    0.00000000
     atom   33 type  1   force =     0.00000000    0.00000000    0.00000000
     atom   34 type  1   force =     0.00000000    0.00000000    0.00000000
     atom   35 type  1   force =     0.00000000    0.00000000    0.00000000
     atom   36 type  1   force =     0.00000000    0.00000000    0.00000000
     atom   37 type  2   force =     0.00000000    0.00000000    0.00000000
     atom   38 type  3   force =     0.00000000    0.00000000    0.00000000
     The SCF correction term to forces
     atom    1 type  1   force =     0.00000000    0.00000000    0.00000000
     atom    2 type  1   force =     0.00000000    0.00000000    0.00000000
     atom    3 type  1   force =     0.00000000    0.00000000    0.00000000
     atom    4 type  1   force =     0.00000000    0.00000000    0.00000000
     atom    5 type  1   force =     0.00000000    0.00000000    0.00000000
     atom    6 type  1   force =     0.00000000    0.00000000    0.00000000
     atom    7 type  1   force =     0.00000000    0.00000000    0.00000000
     atom    8 type  1   force =     0.00000000    0.00000000    0.00000000
     atom    9 type  1   force =     0.00000000    0.00000000    0.00000000
     atom   10 type  1   force =     0.00000027    0.00000011    0.00000066
     atom   11 type  1   force =     0.00000000    0.00000023    0.00000063
     atom   12 type  1   force =    -0.00000027    0.00000015    0.00000065
     atom   13 type  1   force =     0.00000022   -0.00000023    0.00000062
     atom   14 type  1   force =    -0.00000020   -0.00000018    0.00000061
     atom   15 type  1   force =    -0.00000003    0.00000006    0.00000046
     atom   16 type  1   force =     0.00000002   -0.00000021    0.00000066
     atom   17 type  1   force =     0.00000009   -0.00000000    0.00000049
     atom   18 type  1   force =    -0.00000010   -0.00000002    0.00000049
     atom   19 type  1   force =     0.00000001   -0.00000011    0.00000160
     atom   20 type  1   force =     0.00000014   -0.00000001    0.00000132
     atom   21 type  1   force =    -0.00000013    0.00000004    0.00000133
     atom   22 type  1   force =     0.00000010   -0.00000008    0.00000137
     atom   23 type  1   force =     0.00000002   -0.00000020    0.00000135
     atom   24 type  1   force =    -0.00000013   -0.00000004    0.00000134
     atom   25 type  1   force =     0.00000003    0.00000010    0.00000162
     atom   26 type  1   force =    -0.00000001    0.00000006    0.00000161
     atom   27 type  1   force =    -0.00000001    0.00000019    0.00000135
     atom   28 type  1   force =     0.00000000    0.00000001    0.00000173
     atom   29 type  1   force =    -0.00000005    0.00000028    0.00000177
     atom   30 type  1   force =     0.00000010    0.00000031    0.00000180
     atom   31 type  1   force =     0.00000021   -0.00000025    0.00000179
     atom   32 type  1   force =     0.00000002   -0.00000004    0.00000189
     atom   33 type  1   force =    -0.00000021   -0.00000021    0.00000179
     atom   34 type  1   force =     0.00000026   -0.00000004    0.00000183
     atom   35 type  1   force =    -0.00000029   -0.00000002    0.00000184
     atom   36 type  1   force =     0.00000001    0.00000005    0.00000166
     atom   37 type  2   force =     0.00000000   -0.00000000   -0.00000005
     atom   38 type  3   force =     0.00000001   -0.00000000    0.00000029

     Total force =     0.058938     Total SCF correction =     0.000007

     Writing all to output data dir tmp/Cu-vib.save/

     General routines

     Parallel routines

     PAW routines

   This run was terminated on:  18:18:43  15Oct2024

   JOB DONE.