     Program PWSCF v.7.2 starts on 14Jul2024 at 19:37:49

     Reading input from Cu-vib.pwi
Warning: card &CELL ignored
Warning: card / ignored

     Current dimensions of program PWSCF are:
     Max number of different atomic species (ntypx) = 10
     Max number of k-points (npk) =  40000
     Max angular momentum in pseudopotentials (lmaxx) =  4
     file Cu.pbe-dn-kjpaw_psl.1.0.0.UPF: wavefunction(s)  4S 3D renormalized
     file C.pbe-n-kjpaw_psl.1.0.0.UPF: wavefunction(s)  2S 2P renormalized
     file O.pbe-n-kjpaw_psl.1.0.0.UPF: wavefunction(s)  2S 2P renormalized

     IMPORTANT: XC functional enforced from input :
     Exchange-correlation= BEEF-VDW
                           (   1   4  43  14   2   0   0)
     Any further DFT definition will be discarded
     Please, verify this is what you really want

     K-points division:     npool     =       2
     R & G space division:  proc/nbgrp/npool/nimage =      96
     Subspace diagonalization in iterative solution of the eigenvalue problem:
     one sub-group per band group will be used

     Using Slab Decomposition

     Title:
     Cu-vib

     bravais-lattice index     =            0
     lattice parameter (alat)  =      14.6292  a.u.
     unit-cell volume          =    7467.4559 (a.u.)^3
     number of atoms/cell      =           38
     number of atomic types    =            3
     number of electrons       =       406.00
     number of Kohn-Sham states=          244
     kinetic-energy cutoff     =      62.4738  Ry
     charge density cutoff     =     624.7385  Ry
     scf convergence threshold =      7.3E-12
     mixing beta               =       0.3333
     number of iterations used =           12  local-TF  mixing
     Exchange-correlation= BEEF-VDW
                           (   1   4  43  14   2   0   0)

     Effective Screening Medium Method
     Boundary Conditions: Vacuum-Slab-Metal
     total charge in unit cell        =   0.0000
     grid points for fit at edges     =        4

     celldm(1)=  14.629163  celldm(2)=   0.000000  celldm(3)=   0.000000
     celldm(4)=   0.000000  celldm(5)=   0.000000  celldm(6)=   0.000000

     crystal axes: (cart. coord. in units of alat)
               a(1) = (   1.000000   0.000000   0.000000 )
               a(2) = (   0.500000   0.866025   0.000000 )
               a(3) = (   0.000000   0.000000   2.754126 )

     reciprocal axes: (cart. coord. in units 2 pi/alat)
               b(1) = (  1.000000 -0.577351  0.000000 )
               b(2) = (  0.000000  1.154701  0.000000 )
               b(3) = (  0.000000  0.000000  0.363092 )

     PseudoPot. # 1 for Cu read from file:
     /home/k0227/k022716/QE/pseudo/Cu.pbe-dn-kjpaw_psl.1.0.0.UPF
     MD5 check sum: 67c40f9e1593dc2d139023e70404cc2a
     Pseudo is Projector augmented-wave + core cor, Zval = 11.0
     Generated using "atomic" code by A. Dal Corso  v.6.1 svn rev. 13369
     Shape of augmentation charge: PSQ
     Using radial grid of 1199 points,  6 beta functions with:
                l(1) =   0
                l(2) =   0
                l(3) =   1
                l(4) =   1
                l(5) =   2
                l(6) =   2
     Q(r) pseudized with 0 coefficients

     PseudoPot. # 2 for C  read from file:
     /home/k0227/k022716/QE/pseudo/C.pbe-n-kjpaw_psl.1.0.0.UPF
     MD5 check sum: 92a742b3ac0ce1af44b5aa3f9352ca21
     Pseudo is Projector augmented-wave + core cor, Zval =  4.0
     Generated using "atomic" code by A. Dal Corso  v.6.1 svn rev. 13369
     Shape of augmentation charge: PSQ
     Using radial grid of 1073 points,  4 beta functions with:
                l(1) =   0
                l(2) =   0
                l(3) =   1
                l(4) =   1
     Q(r) pseudized with 0 coefficients

     PseudoPot. # 3 for O  read from file:
     /home/k0227/k022716/QE/pseudo/O.pbe-n-kjpaw_psl.1.0.0.UPF
     MD5 check sum: c61d840054b6bba219e553541e327118
     Pseudo is Projector augmented-wave + core cor, Zval =  6.0
     Generated using "atomic" code by A. Dal Corso  v.6.1 svn rev. 13369
     Shape of augmentation charge: PSQ
     Using radial grid of 1095 points,  4 beta functions with:
                l(1) =   0
                l(2) =   0
                l(3) =   1
                l(4) =   1
     Q(r) pseudized with 0 coefficients

     atomic species   valence    mass     pseudopotential
        Cu            11.00    63.54600     Cu( 1.00)
        C              4.00    12.01100     C ( 1.00)
        O              6.00    15.99900     O ( 1.00)

     No symmetry found

                                    s                        frac. trans.

      isym =  1     identity

 cryst.   s( 1) = (     1          0          0      )
                  (     0          1          0      )
                  (     0          0          1      )

 cart.    s( 1) = (  1.0000000  0.0000000  0.0000000 )
                  (  0.0000000  1.0000000  0.0000000 )
                  (  0.0000000  0.0000000  1.0000000 )

   Cartesian axes

     site n.     atom                  positions (alat units)
         1           Cu  tau(   1) = (   0.0000000   0.0000000  -0.8213671  )
         2           Cu  tau(   2) = (   0.3333333   0.0000000  -0.8213671  )
         3           Cu  tau(   3) = (   0.6666666   0.0000000  -0.8213671  )
         4           Cu  tau(   4) = (   0.1666667   0.2886751  -0.8213671  )
         5           Cu  tau(   5) = (   0.5000000   0.2886751  -0.8213671  )
         6           Cu  tau(   6) = (   0.8333333   0.2886751  -0.8213671  )
         7           Cu  tau(   7) = (   0.3333333   0.5773503  -0.8213671  )
         8           Cu  tau(   8) = (   0.6666666   0.5773503  -0.8213671  )
         9           Cu  tau(   9) = (   1.0000000   0.5773503  -0.8213671  )
        10           Cu  tau(  10) = (   0.1676726   0.0968058  -0.5514407  )
        11           Cu  tau(  11) = (   0.5000000   0.0962354  -0.5516369  )
        12           Cu  tau(  12) = (   0.8323274   0.0968058  -0.5514407  )
        13           Cu  tau(  13) = (   0.3333423   0.3848950  -0.5516369  )
        14           Cu  tau(  14) = (   0.6666577   0.3848950  -0.5516369  )
        15           Cu  tau(  15) = (   1.0000000   0.3850123  -0.5516296  )
        16           Cu  tau(  16) = (   0.5000000   0.6724138  -0.5514407  )
        17           Cu  tau(  17) = (   0.8334305   0.6735192  -0.5516296  )
        18           Cu  tau(  18) = (   1.1665695   0.6735192  -0.5516296  )
        19           Cu  tau(  19) = (   0.0000000   0.1920199  -0.2839468  )
        20           Cu  tau(  20) = (   0.3352761   0.1935717  -0.2785153  )
        21           Cu  tau(  21) = (   0.6647239   0.1935717  -0.2785153  )
        22           Cu  tau(  22) = (   0.1667971   0.4810499  -0.2820853  )
        23           Cu  tau(  23) = (   0.5000000   0.4788819  -0.2785153  )
        24           Cu  tau(  24) = (   0.8332029   0.4810499  -0.2820853  )
        25           Cu  tau(  25) = (   0.3337059   0.7700154  -0.2839468  )
        26           Cu  tau(  26) = (   0.6662941   0.7700154  -0.2839468  )
        27           Cu  tau(  27) = (   1.0000000   0.7699510  -0.2820853  )
        28           Cu  tau(  28) = (   0.0000000   0.0000000  -0.0141656  )
        29           Cu  tau(  29) = (   0.3320846  -0.0026680  -0.0142138  )
        30           Cu  tau(  30) = (   0.6679153  -0.0026680  -0.0142138  )
        31           Cu  tau(  31) = (   0.1637317   0.2889277  -0.0142138  )
        32           Cu  tau(  32) = (   0.5000000   0.2886751   0.0020453  )
        33           Cu  tau(  33) = (   0.8362682   0.2889277  -0.0142138  )
        34           Cu  tau(  34) = (   0.3316471   0.5797657  -0.0142138  )
        35           Cu  tau(  35) = (   0.6683529   0.5797657  -0.0142138  )
        36           Cu  tau(  36) = (   1.0000000   0.5773503  -0.0124640  )
        37           C   tau(  37) = (   0.5000000   0.2886751   0.2446598  )
        38           O   tau(  38) = (   0.5000000   0.2886751   0.3932622  )

   Crystallographic axes

     site n.     atom                  positions (cryst. coord.)
         1           Cu  tau(   1) = (  0.0000000  0.0000000 -0.2982315  )
         2           Cu  tau(   2) = (  0.3333333  0.0000000 -0.2982315  )
         3           Cu  tau(   3) = (  0.6666666  0.0000000 -0.2982315  )
         4           Cu  tau(   4) = ( -0.0000001  0.3333335 -0.2982315  )
         5           Cu  tau(   5) = (  0.3333332  0.3333335 -0.2982315  )
         6           Cu  tau(   6) = (  0.6666666  0.3333335 -0.2982315  )
         7           Cu  tau(   7) = ( -0.0000002  0.6666670 -0.2982315  )
         8           Cu  tau(   8) = (  0.3333332  0.6666670 -0.2982315  )
         9           Cu  tau(   9) = (  0.6666665  0.6666670 -0.2982315  )
        10           Cu  tau(  10) = (  0.1117817  0.1117818 -0.2002235  )
        11           Cu  tau(  11) = (  0.4444384  0.1111231 -0.2002947  )
        12           Cu  tau(  12) = (  0.7764365  0.1117818 -0.2002235  )
        13           Cu  tau(  13) = (  0.1111230  0.4444386 -0.2002947  )
        14           Cu  tau(  14) = (  0.4444383  0.4444386 -0.2002947  )
        15           Cu  tau(  15) = (  0.7777129  0.4445742 -0.2002921  )
        16           Cu  tau(  16) = (  0.1117815  0.7764369 -0.2002235  )
        17           Cu  tau(  17) = (  0.4445738  0.7777134 -0.2002921  )
        18           Cu  tau(  18) = (  0.7777128  0.7777134 -0.2002921  )
        19           Cu  tau(  19) = ( -0.1108628  0.2217256 -0.1030987  )
        20           Cu  tau(  20) = (  0.2235173  0.2235175 -0.1011266  )
        21           Cu  tau(  21) = (  0.5529652  0.2235175 -0.1011266  )
        22           Cu  tau(  22) = ( -0.1109373  0.5554688 -0.1024228  )
        23           Cu  tau(  23) = (  0.2235172  0.5529655 -0.1011266  )
        24           Cu  tau(  24) = (  0.5554684  0.5554688 -0.1024228  )
        25           Cu  tau(  25) = ( -0.1108629  0.8891376 -0.1030987  )
        26           Cu  tau(  26) = (  0.2217253  0.8891376 -0.1030987  )
        27           Cu  tau(  27) = (  0.5554684  0.8890632 -0.1024228  )
        28           Cu  tau(  28) = (  0.0000000  0.0000000 -0.0051434  )
        29           Cu  tau(  29) = (  0.3336250 -0.0030808 -0.0051609  )
        30           Cu  tau(  30) = (  0.6694557 -0.0030808 -0.0051609  )
        31           Cu  tau(  31) = ( -0.0030808  0.3336252 -0.0051609  )
        32           Cu  tau(  32) = (  0.3333332  0.3333335  0.0007426  )
        33           Cu  tau(  33) = (  0.6694556  0.3336252 -0.0051609  )
        34           Cu  tau(  34) = ( -0.0030809  0.6694560 -0.0051609  )
        35           Cu  tau(  35) = (  0.3336249  0.6694560 -0.0051609  )
        36           Cu  tau(  36) = (  0.6666665  0.6666670 -0.0045256  )
        37           C   tau(  37) = (  0.3333332  0.3333335  0.0888339  )
        38           O   tau(  38) = (  0.3333332  0.3333335  0.1427902  )

     number of k points=    64  Marzari-Vanderbilt smearing, width (Ry)=  0.0073
                       cart. coord. in units 2pi/alat
        k(    1) = (   0.0000000   0.0000000   0.0000000), wk =   0.0312500
[...]
     atom   15 type  1   force =     0.00000003    0.00102258   -0.01718760
     atom   16 type  1   force =    -0.00000002    0.00601738   -0.02426751
     atom   17 type  1   force =     0.00088556   -0.00051171   -0.01718752
     atom   18 type  1   force =    -0.00088554   -0.00051173   -0.01718752
     atom   19 type  1   force =    -0.00000003    0.00444643    0.02713580
     atom   20 type  1   force =    -0.01507076   -0.00870077    0.00500584
     atom   21 type  1   force =     0.01507078   -0.00870077    0.00500584
     atom   22 type  1   force =     0.00655028   -0.00378177    0.03028038
     atom   23 type  1   force =     0.00000001    0.01740234    0.00500588
     atom   24 type  1   force =    -0.00655029   -0.00378178    0.03028039
     atom   25 type  1   force =    -0.00385043   -0.00222346    0.02713582
     atom   26 type  1   force =     0.00385041   -0.00222347    0.02713582
     atom   27 type  1   force =     0.00000002    0.00756319    0.03028036
     atom   28 type  1   force =    -0.00000003    0.00000060    0.11616094
     atom   29 type  1   force =     0.01399823    0.02169958    0.14670934
     atom   30 type  1   force =    -0.01399822    0.02169956    0.14670935
     atom   31 type  1   force =     0.02579099    0.00127324    0.14670956
     atom   32 type  1   force =    -0.00000000   -0.00000010    0.01631973
     atom   33 type  1   force =    -0.02579098    0.00127321    0.14670956
     atom   34 type  1   force =     0.01179273   -0.02297280    0.14670926
     atom   35 type  1   force =    -0.01179276   -0.02297281    0.14670924
     atom   36 type  1   force =     0.00000003   -0.00000050    0.12105599
     atom   37 type  2   force =     0.00000000    0.00000001    0.79767399
     atom   38 type  3   force =    -0.00000000    0.00000002   -2.76100129
     The ionic contribution  to forces
     atom    1 type  1   force =    -0.00000274    0.00004914   74.57899607
     atom    2 type  1   force =    -0.03532901   -0.00358976   74.43255853
     atom    3 type  1   force =     0.03533135   -0.00359129   74.43255896
     atom    4 type  1   force =    -0.02081723   -0.02876878   74.43258284
     atom    5 type  1   force =    -0.00000021    0.00000670   74.43712510
     atom    6 type  1   force =     0.02081730   -0.02877162   74.43258193
     atom    7 type  1   force =     0.01451164    0.03236483   74.43257945
     atom    8 type  1   force =    -0.01451423    0.03236352   74.43257811
     atom    9 type  1   force =     0.00000286   -0.00005238   74.40660191
     atom   10 type  1   force =    -0.06079051   -0.03503502  221.53998810
     atom   11 type  1   force =     0.00000073    0.08721179  221.58564573
     atom   12 type  1   force =     0.06078974   -0.03503772  221.53998849
     atom   13 type  1   force =     0.07547387   -0.04357591  221.58566303
     atom   14 type  1   force =    -0.07547609   -0.04357798  221.58566346
     atom   15 type  1   force =     0.00000238   -0.03983026  221.39897274
     atom   16 type  1   force =    -0.00000295    0.07013509  221.54002007
     atom   17 type  1   force =    -0.03449141    0.01985559  221.39898694
     atom   18 type  1   force =     0.03449477    0.01985495  221.39898688
     atom   19 type  1   force =    -0.00000250   -0.05958874  368.01834875
     atom   20 type  1   force =    -0.15200791   -0.08770528  370.65487954
     atom   21 type  1   force =     0.15200984   -0.08770733  370.65487992
     atom   22 type  1   force =    -0.05550412    0.03202879  368.91329562
     atom   23 type  1   force =    -0.00000079    0.17550700  370.65487168
     atom   24 type  1   force =     0.05550475    0.03202609  368.91329597
     atom   25 type  1   force =     0.05165262    0.02978218  368.01834712
     atom   26 type  1   force =    -0.05165537    0.02978154  368.01834705
     atom   27 type  1   force =     0.00000326   -0.06413149  368.91330110
     atom   28 type  1   force =    -0.00000310    0.00003907  517.01027395
     atom   29 type  1   force =    -0.66156455   -0.90917586  515.76453786
     atom   30 type  1   force =     0.66156682   -0.90917718  515.76453650
     atom   31 type  1   force =    -1.11818713   -0.11831390  515.76451813
     atom   32 type  1   force =     0.00000020    0.00000939  515.14973451
     atom   33 type  1   force =     1.11818704   -0.11831676  515.76451722
     atom   34 type  1   force =    -0.45662073    1.02749126  515.76451497
     atom   35 type  1   force =     0.45661849    1.02748971  515.76451540
     atom   36 type  1   force =     0.00000288   -0.00005038  517.80086080
     atom   37 type  2   force =     0.00000002    0.00000066  208.27197071
     atom   38 type  3   force =     0.00000001    0.00000034  336.98678722
     The local contribution  to forces
     atom    1 type  1   force =     0.00000274   -0.00004936  -74.46387083
     atom    2 type  1   force =     0.03585106    0.01082262  -74.32541195
     atom    3 type  1   force =    -0.03585341    0.01082416  -74.32541234
     atom    4 type  1   force =     0.02734224    0.02560444  -74.32543590
     atom    5 type  1   force =     0.00000022   -0.00000664  -74.31917800
     atom    6 type  1   force =    -0.02734231    0.02560730  -74.32543499
     atom    7 type  1   force =    -0.00850866   -0.03643330  -74.32543290
     atom    8 type  1   force =     0.00851125   -0.03643199  -74.32543160
     atom    9 type  1   force =    -0.00000286    0.00005251  -74.29643405
     atom   10 type  1   force =     0.06560159    0.03781275 -221.51534121
     atom   11 type  1   force =    -0.00000071   -0.08804508 -221.55289523
     atom   12 type  1   force =    -0.06560084    0.03781545 -221.51534160
     atom   13 type  1   force =    -0.07619551    0.04399255 -221.55291250
     atom   14 type  1   force =     0.07619774    0.04399459 -221.55291292
     atom   15 type  1   force =    -0.00000239    0.03874542 -221.38189812
     atom   16 type  1   force =     0.00000294   -0.07569045 -221.51537312
     atom   17 type  1   force =     0.03355195   -0.01931319 -221.38191228
     atom   18 type  1   force =    -0.03355528   -0.01931253 -221.38191222
     atom   19 type  1   force =     0.00000250    0.05527589 -368.04596567
     atom   20 type  1   force =     0.16585901    0.09570223 -370.66049850
     atom   21 type  1   force =    -0.16586094    0.09570428 -370.66049889
     atom   22 type  1   force =     0.04866880   -0.02808249 -368.94466932
     atom   23 type  1   force =     0.00000079   -0.19150102 -370.66049069
     atom   24 type  1   force =    -0.04866943   -0.02807979 -368.94466968
     atom   25 type  1   force =    -0.04791758   -0.02762575 -368.04596407
     atom   26 type  1   force =     0.04792033   -0.02762510 -368.04596400
     atom   27 type  1   force =    -0.00000325    0.05623875 -368.94467478
     atom   28 type  1   force =     0.00000310   -0.00003931 -517.10926775
     atom   29 type  1   force =     0.64792067    0.88816675 -515.89410997
     atom   30 type  1   force =    -0.64792295    0.88816807 -515.89410864
     atom   31 type  1   force =     1.09317091    0.11700251 -515.89409062
     atom   32 type  1   force =    -0.00000020   -0.00000928 -515.18974002
     atom   33 type  1   force =    -1.09317083    0.11700538 -515.89408971
     atom   34 type  1   force =     0.44524844   -1.00517074 -515.89408713
     atom   35 type  1   force =    -0.44524620   -1.00516920 -515.89408754
     atom   36 type  1   force =    -0.00000288    0.00005051 -517.90428869
     atom   37 type  2   force =    -0.00000002   -0.00000069 -209.06580850
     atom   38 type  3   force =    -0.00000001   -0.00000036 -334.24388982
     The core correction contribution to forces
     atom    1 type  1   force =     0.00000000   -0.00000007    0.01669734
     atom    2 type  1   force =    -0.00011664    0.00013935    0.01690699
     atom    3 type  1   force =     0.00011663    0.00013935    0.01690699
     atom    4 type  1   force =     0.00006242   -0.00017072    0.01690697
     atom    5 type  1   force =    -0.00000000   -0.00000000    0.01632415
     atom    6 type  1   force =    -0.00006242   -0.00017072    0.01690697
     atom    7 type  1   force =     0.00017906    0.00003135    0.01690696
     atom    8 type  1   force =    -0.00017906    0.00003135    0.01690696
     atom    9 type  1   force =    -0.00000000    0.00000005    0.01694443
     atom   10 type  1   force =     0.00038004    0.00021935   -0.00038098
     atom   11 type  1   force =     0.00000000   -0.00040381   -0.00103843
     atom   12 type  1   force =    -0.00038004    0.00021935   -0.00038098
     atom   13 type  1   force =    -0.00034965    0.00020187   -0.00103846
     atom   14 type  1   force =     0.00034965    0.00020187   -0.00103846
     atom   15 type  1   force =    -0.00000000    0.00008146    0.00012314
     atom   16 type  1   force =     0.00000000   -0.00043876   -0.00038103
     atom   17 type  1   force =     0.00007055   -0.00004066    0.00012312
     atom   18 type  1   force =    -0.00007055   -0.00004066    0.00012312
     atom   19 type  1   force =     0.00000000   -0.00015254    0.00048998
     atom   20 type  1   force =     0.00121758    0.00070291    0.00063499
     atom   21 type  1   force =    -0.00121758    0.00070292    0.00063499
     atom   22 type  1   force =     0.00027642   -0.00015959    0.00112061
     atom   23 type  1   force =     0.00000000   -0.00140593    0.00063500
     atom   24 type  1   force =    -0.00027642   -0.00015959    0.00112061
     atom   25 type  1   force =     0.00013206    0.00007630    0.00048999
     atom   26 type  1   force =    -0.00013206    0.00007631    0.00048999
     atom   27 type  1   force =    -0.00000000    0.00031924    0.00112061
     atom   28 type  1   force =     0.00000000   -0.00000005   -0.01720102
     atom   29 type  1   force =    -0.00034251   -0.00067760   -0.01714388
     atom   30 type  1   force =     0.00034251   -0.00067759   -0.01714388
     atom   31 type  1   force =    -0.00075802    0.00004215   -0.01714386
     atom   32 type  1   force =     0.00000000    0.00000000    0.02369565
     atom   33 type  1   force =     0.00075802    0.00004215   -0.01714386
     atom   34 type  1   force =    -0.00041551    0.00063546   -0.01714386
     atom   35 type  1   force =     0.00041551    0.00063546   -0.01714386
     atom   36 type  1   force =    -0.00000000    0.00000006   -0.01765203
     atom   37 type  2   force =    -0.00000000    0.00000004   -0.00380103
     atom   38 type  3   force =     0.00000000    0.00000000    0.01804042
     The Hubbard contrib.    to forces
     atom    1 type  1   force =     0.00000000    0.00000000    0.00000000
     atom    2 type  1   force =     0.00000000    0.00000000    0.00000000
     atom    3 type  1   force =     0.00000000    0.00000000    0.00000000
     atom    4 type  1   force =     0.00000000    0.00000000    0.00000000
     atom    5 type  1   force =     0.00000000    0.00000000    0.00000000
     atom    6 type  1   force =     0.00000000    0.00000000    0.00000000
     atom    7 type  1   force =     0.00000000    0.00000000    0.00000000
     atom    8 type  1   force =     0.00000000    0.00000000    0.00000000
     atom    9 type  1   force =     0.00000000    0.00000000    0.00000000
     atom   10 type  1   force =     0.00000000    0.00000000    0.00000000
     atom   11 type  1   force =     0.00000000    0.00000000    0.00000000
     atom   12 type  1   force =     0.00000000    0.00000000    0.00000000
     atom   13 type  1   force =     0.00000000    0.00000000    0.00000000
     atom   14 type  1   force =     0.00000000    0.00000000    0.00000000
     atom   15 type  1   force =     0.00000000    0.00000000    0.00000000
     atom   16 type  1   force =     0.00000000    0.00000000    0.00000000
     atom   17 type  1   force =     0.00000000    0.00000000    0.00000000
     atom   18 type  1   force =     0.00000000    0.00000000    0.00000000
     atom   19 type  1   force =     0.00000000    0.00000000    0.00000000
     atom   20 type  1   force =     0.00000000    0.00000000    0.00000000
     atom   21 type  1   force =     0.00000000    0.00000000    0.00000000
     atom   22 type  1   force =     0.00000000    0.00000000    0.00000000
     atom   23 type  1   force =     0.00000000    0.00000000    0.00000000
     atom   24 type  1   force =     0.00000000    0.00000000    0.00000000
     atom   25 type  1   force =     0.00000000    0.00000000    0.00000000
     atom   26 type  1   force =     0.00000000    0.00000000    0.00000000
     atom   27 type  1   force =     0.00000000    0.00000000    0.00000000
     atom   28 type  1   force =     0.00000000    0.00000000    0.00000000
     atom   29 type  1   force =     0.00000000    0.00000000    0.00000000
     atom   30 type  1   force =     0.00000000    0.00000000    0.00000000
     atom   31 type  1   force =     0.00000000    0.00000000    0.00000000
     atom   32 type  1   force =     0.00000000    0.00000000    0.00000000
     atom   33 type  1   force =     0.00000000    0.00000000    0.00000000
     atom   34 type  1   force =     0.00000000    0.00000000    0.00000000
     atom   35 type  1   force =     0.00000000    0.00000000    0.00000000
     atom   36 type  1   force =     0.00000000    0.00000000    0.00000000
     atom   37 type  2   force =     0.00000000    0.00000000    0.00000000
     atom   38 type  3   force =     0.00000000    0.00000000    0.00000000
     The SCF correction term to forces
     atom    1 type  1   force =     0.00000000    0.00000000    0.00000000
     atom    2 type  1   force =     0.00000000    0.00000000    0.00000000
     atom    3 type  1   force =     0.00000000    0.00000000    0.00000000
     atom    4 type  1   force =     0.00000000    0.00000000    0.00000000
     atom    5 type  1   force =     0.00000000    0.00000000    0.00000000
     atom    6 type  1   force =     0.00000000    0.00000000    0.00000000
     atom    7 type  1   force =     0.00000000    0.00000000    0.00000000
     atom    8 type  1   force =     0.00000000    0.00000000    0.00000000
     atom    9 type  1   force =     0.00000000    0.00000000    0.00000000
     atom   10 type  1   force =    -0.00000010   -0.00000006   -0.00000118
     atom   11 type  1   force =    -0.00000001    0.00000006   -0.00000117
     atom   12 type  1   force =     0.00000011   -0.00000006   -0.00000118
     atom   13 type  1   force =     0.00000005   -0.00000004   -0.00000117
     atom   14 type  1   force =    -0.00000006   -0.00000003   -0.00000117
     atom   15 type  1   force =     0.00000001   -0.00000014   -0.00000124
     atom   16 type  1   force =     0.00000001    0.00000012   -0.00000118
     atom   17 type  1   force =    -0.00000012    0.00000008   -0.00000124
     atom   18 type  1   force =     0.00000012    0.00000006   -0.00000124
     atom   19 type  1   force =     0.00000001   -0.00000013   -0.00000061
     atom   20 type  1   force =    -0.00000011   -0.00000007   -0.00000074
     atom   21 type  1   force =     0.00000010   -0.00000006   -0.00000073
     atom   22 type  1   force =     0.00000001   -0.00000000   -0.00000057
     atom   23 type  1   force =    -0.00000000    0.00000013   -0.00000073
     atom   24 type  1   force =    -0.00000001    0.00000000   -0.00000056
     atom   25 type  1   force =     0.00000011    0.00000006   -0.00000060
     atom   26 type  1   force =    -0.00000011    0.00000006   -0.00000060
     atom   27 type  1   force =    -0.00000000    0.00000001   -0.00000056
     atom   28 type  1   force =     0.00000000   -0.00000001    0.00000066
     atom   29 type  1   force =    -0.00000012   -0.00000018    0.00000066
     atom   30 type  1   force =     0.00000012   -0.00000018    0.00000067
     atom   31 type  1   force =    -0.00000021   -0.00000002    0.00000067
     atom   32 type  1   force =     0.00000000    0.00000000    0.00000020
     atom   33 type  1   force =     0.00000021   -0.00000001    0.00000067
     atom   34 type  1   force =    -0.00000009    0.00000020    0.00000066
     atom   35 type  1   force =     0.00000009    0.00000020    0.00000066
     atom   36 type  1   force =    -0.00000000    0.00000001    0.00000074
     atom   37 type  2   force =     0.00000000    0.00000000   -0.00000038
     atom   38 type  3   force =     0.00000000   -0.00000000   -0.00000038

     Total force =     0.000134     Total SCF correction =     0.000005

     Writing all to output data dir tmp/Cu-vib.save/

     General routines

     Parallel routines

     PAW routines

   This run was terminated on:  21:34: 9  14Jul2024

   JOB DONE.