     Program PWSCF v.7.2 starts on  7Oct2024 at  2:28:33

     Reading input from Cu-vib.pwi
Warning: card &CELL ignored
Warning: card / ignored

     Current dimensions of program PWSCF are:
     Max number of different atomic species (ntypx) = 10
     Max number of k-points (npk) =  40000
     Max angular momentum in pseudopotentials (lmaxx) =  4
     file Cu.pbe-dn-kjpaw_psl.1.0.0.UPF: wavefunction(s)  4S 3D renormalized
     file C.pbe-n-kjpaw_psl.1.0.0.UPF: wavefunction(s)  2S 2P renormalized
     file O.pbe-n-kjpaw_psl.1.0.0.UPF: wavefunction(s)  2S 2P renormalized

     IMPORTANT: XC functional enforced from input :
     Exchange-correlation= BEEF-VDW
                           (   1   4  43  14   2   0   0)
     Any further DFT definition will be discarded
     Please, verify this is what you really want

     K-points division:     npool     =       2
     R & G space division:  proc/nbgrp/npool/nimage =      96
     Subspace diagonalization in iterative solution of the eigenvalue problem:
     one sub-group per band group will be used

     Using Slab Decomposition

     Title:
     Cu-vib

     bravais-lattice index     =            0
     lattice parameter (alat)  =      14.6292  a.u.
     unit-cell volume          =    7467.4528 (a.u.)^3
     number of atoms/cell      =           38
     number of atomic types    =            3
     number of electrons       =       406.00
     number of Kohn-Sham states=          244
     kinetic-energy cutoff     =      62.4738  Ry
     charge density cutoff     =     624.7385  Ry
     scf convergence threshold =      7.3E-12
     mixing beta               =       0.3333
     number of iterations used =           12  plain     mixing
     Exchange-correlation= BEEF-VDW
                           (   1   4  43  14   2   0   0)

     Effective Screening Medium Method
     Boundary Conditions: Vacuum-Slab-Metal
     total charge in unit cell        =   0.0000
     grid points for fit at edges     =        4

     celldm(1)=  14.629161  celldm(2)=   0.000000  celldm(3)=   0.000000
     celldm(4)=   0.000000  celldm(5)=   0.000000  celldm(6)=   0.000000

     crystal axes: (cart. coord. in units of alat)
               a(1) = (   1.000000   0.000000   0.000000 )
               a(2) = (   0.500000   0.866025   0.000000 )
               a(3) = (   0.000000   0.000000   2.754126 )

     reciprocal axes: (cart. coord. in units 2 pi/alat)
               b(1) = (  1.000000 -0.577351  0.000000 )
               b(2) = (  0.000000  1.154701  0.000000 )
               b(3) = (  0.000000  0.000000  0.363092 )

     PseudoPot. # 1 for Cu read from file:
     /home/k0227/k022716/QE/pseudo/Cu.pbe-dn-kjpaw_psl.1.0.0.UPF
     MD5 check sum: 67c40f9e1593dc2d139023e70404cc2a
     Pseudo is Projector augmented-wave + core cor, Zval = 11.0
     Generated using "atomic" code by A. Dal Corso  v.6.1 svn rev. 13369
     Shape of augmentation charge: PSQ
     Using radial grid of 1199 points,  6 beta functions with:
                l(1) =   0
                l(2) =   0
                l(3) =   1
                l(4) =   1
                l(5) =   2
                l(6) =   2
     Q(r) pseudized with 0 coefficients

     PseudoPot. # 2 for C  read from file:
     /home/k0227/k022716/QE/pseudo/C.pbe-n-kjpaw_psl.1.0.0.UPF
     MD5 check sum: 92a742b3ac0ce1af44b5aa3f9352ca21
     Pseudo is Projector augmented-wave + core cor, Zval =  4.0
     Generated using "atomic" code by A. Dal Corso  v.6.1 svn rev. 13369
     Shape of augmentation charge: PSQ
     Using radial grid of 1073 points,  4 beta functions with:
                l(1) =   0
                l(2) =   0
                l(3) =   1
                l(4) =   1
     Q(r) pseudized with 0 coefficients

     PseudoPot. # 3 for O  read from file:
     /home/k0227/k022716/QE/pseudo/O.pbe-n-kjpaw_psl.1.0.0.UPF
     MD5 check sum: c61d840054b6bba219e553541e327118
     Pseudo is Projector augmented-wave + core cor, Zval =  6.0
     Generated using "atomic" code by A. Dal Corso  v.6.1 svn rev. 13369
     Shape of augmentation charge: PSQ
     Using radial grid of 1095 points,  4 beta functions with:
                l(1) =   0
                l(2) =   0
                l(3) =   1
                l(4) =   1
     Q(r) pseudized with 0 coefficients

     atomic species   valence    mass     pseudopotential
        Cu            11.00    63.54600     Cu( 1.00)
        C              4.00    12.01100     C ( 1.00)
        O              6.00    15.99900     O ( 1.00)

     No symmetry found

                                    s                        frac. trans.

      isym =  1     identity

 cryst.   s( 1) = (     1          0          0      )
                  (     0          1          0      )
                  (     0          0          1      )

 cart.    s( 1) = (  1.0000000  0.0000000  0.0000000 )
                  (  0.0000000  1.0000000  0.0000000 )
                  (  0.0000000  0.0000000  1.0000000 )

   Cartesian axes

     site n.     atom                  positions (alat units)
         1           Cu  tau(   1) = (   0.0000000   0.0000000  -0.8213672  )
         2           Cu  tau(   2) = (   0.3333333   0.0000000  -0.8213672  )
         3           Cu  tau(   3) = (   0.6666667   0.0000000  -0.8213672  )
         4           Cu  tau(   4) = (   0.1666667   0.2886751  -0.8213672  )
         5           Cu  tau(   5) = (   0.5000000   0.2886751  -0.8213672  )
         6           Cu  tau(   6) = (   0.8333334   0.2886751  -0.8213672  )
         7           Cu  tau(   7) = (   0.3333333   0.5773503  -0.8213672  )
         8           Cu  tau(   8) = (   0.6666667   0.5773503  -0.8213672  )
         9           Cu  tau(   9) = (   1.0000000   0.5773503  -0.8213672  )
        10           Cu  tau(  10) = (   0.1676806   0.0968104  -0.5514925  )
        11           Cu  tau(  11) = (   0.5000000   0.0962635  -0.5516923  )
        12           Cu  tau(  12) = (   0.8323194   0.0968104  -0.5514925  )
        13           Cu  tau(  13) = (   0.3333666   0.3848810  -0.5516923  )
        14           Cu  tau(  14) = (   0.6666334   0.3848810  -0.5516923  )
        15           Cu  tau(  15) = (   1.0000000   0.3850188  -0.5516520  )
        16           Cu  tau(  16) = (   0.5000000   0.6724045  -0.5514925  )
        17           Cu  tau(  17) = (   0.8334361   0.6735160  -0.5516520  )
        18           Cu  tau(  18) = (   1.1665640   0.6735160  -0.5516520  )
        19           Cu  tau(  19) = (   0.0000000   0.1919552  -0.2839341  )
        20           Cu  tau(  20) = (   0.3352907   0.1935802  -0.2785067  )
        21           Cu  tau(  21) = (   0.6647094   0.1935802  -0.2785067  )
        22           Cu  tau(  22) = (   0.1667633   0.4810694  -0.2821276  )
        23           Cu  tau(  23) = (   0.5000000   0.4788651  -0.2785067  )
        24           Cu  tau(  24) = (   0.8332367   0.4810694  -0.2821276  )
        25           Cu  tau(  25) = (   0.3337619   0.7700478  -0.2839341  )
        26           Cu  tau(  26) = (   0.6662381   0.7700478  -0.2839341  )
        27           Cu  tau(  27) = (   1.0000000   0.7699120  -0.2821276  )
        28           Cu  tau(  28) = (   0.0000000   0.0000000  -0.0140374  )
        29           Cu  tau(  29) = (   0.3321303  -0.0026924  -0.0143045  )
        30           Cu  tau(  30) = (   0.6678698  -0.0026924  -0.0143045  )
        31           Cu  tau(  31) = (   0.1637335   0.2889794  -0.0143045  )
        32           Cu  tau(  32) = (   0.5000000   0.2886751   0.0033626  )
        33           Cu  tau(  33) = (   0.8362666   0.2889794  -0.0143045  )
        34           Cu  tau(  34) = (   0.3316032   0.5797384  -0.0143045  )
        35           Cu  tau(  35) = (   0.6683968   0.5797384  -0.0143045  )
        36           Cu  tau(  36) = (   1.0000000   0.5773503  -0.0123148  )
        37           C   tau(  37) = (   0.5000000   0.2886751   0.2446589  )
        38           O   tau(  38) = (   0.5000000   0.2886751   0.3932614  )

   Crystallographic axes

     site n.     atom                  positions (cryst. coord.)
         1           Cu  tau(   1) = (  0.0000000  0.0000000 -0.2982315  )
         2           Cu  tau(   2) = (  0.3333333  0.0000000 -0.2982315  )
         3           Cu  tau(   3) = (  0.6666667  0.0000000 -0.2982315  )
         4           Cu  tau(   4) = ( -0.0000001  0.3333335 -0.2982315  )
         5           Cu  tau(   5) = (  0.3333333  0.3333335 -0.2982315  )
         6           Cu  tau(   6) = (  0.6666666  0.3333335 -0.2982315  )
         7           Cu  tau(   7) = ( -0.0000002  0.6666670 -0.2982315  )
         8           Cu  tau(   8) = (  0.3333332  0.6666670 -0.2982315  )
         9           Cu  tau(   9) = (  0.6666665  0.6666670 -0.2982315  )
        10           Cu  tau(  10) = (  0.1117870  0.1117871 -0.2002423  )
        11           Cu  tau(  11) = (  0.4444223  0.1111555 -0.2003148  )
        12           Cu  tau(  12) = (  0.7764259  0.1117871 -0.2002423  )
        13           Cu  tau(  13) = (  0.1111554  0.4444225 -0.2003148  )
        14           Cu  tau(  14) = (  0.4444222  0.4444225 -0.2003148  )
        15           Cu  tau(  15) = (  0.7777092  0.4445816 -0.2003002  )
        16           Cu  tau(  16) = (  0.1117869  0.7764263 -0.2002423  )
        17           Cu  tau(  17) = (  0.4445812  0.7777097 -0.2003002  )
        18           Cu  tau(  18) = (  0.7777092  0.7777097 -0.2003002  )
        19           Cu  tau(  19) = ( -0.1108254  0.2216509 -0.1030941  )
        20           Cu  tau(  20) = (  0.2235271  0.2235272 -0.1011234  )
        21           Cu  tau(  21) = (  0.5529457  0.2235272 -0.1011234  )
        22           Cu  tau(  22) = ( -0.1109824  0.5554914 -0.1024382  )
        23           Cu  tau(  23) = (  0.2235270  0.5529461 -0.1011234  )
        24           Cu  tau(  24) = (  0.5554910  0.5554914 -0.1024382  )
        25           Cu  tau(  25) = ( -0.1108256  0.8891751 -0.1030941  )
        26           Cu  tau(  26) = (  0.2216506  0.8891751 -0.1030941  )
        27           Cu  tau(  27) = (  0.5554909  0.8890182 -0.1024382  )
        28           Cu  tau(  28) = (  0.0000000  0.0000000 -0.0050969  )
        29           Cu  tau(  29) = (  0.3336847 -0.0031089 -0.0051938  )
        30           Cu  tau(  30) = (  0.6694242 -0.0031089 -0.0051938  )
        31           Cu  tau(  31) = ( -0.0031090  0.3336849 -0.0051938  )
        32           Cu  tau(  32) = (  0.3333333  0.3333335  0.0012209  )
        33           Cu  tau(  33) = (  0.6694241  0.3336849 -0.0051938  )
        34           Cu  tau(  34) = ( -0.0031090  0.6694245 -0.0051938  )
        35           Cu  tau(  35) = (  0.3336846  0.6694245 -0.0051938  )
        36           Cu  tau(  36) = (  0.6666665  0.6666670 -0.0044714  )
        37           C   tau(  37) = (  0.3333333  0.3333335  0.0888336  )
        38           O   tau(  38) = (  0.3333333  0.3333335  0.1427899  )

     number of k points=    64  Marzari-Vanderbilt smearing, width (Ry)=  0.0073
                       cart. coord. in units 2pi/alat
        k(    1) = (   0.0000000   0.0000000   0.0000000), wk =   0.0312500
[...]
     atom   15 type  1   force =    -0.00000023    0.00093849   -0.01711296
     atom   16 type  1   force =     0.00000022    0.00591456   -0.02407654
     atom   17 type  1   force =     0.00081280   -0.00046981   -0.01711285
     atom   18 type  1   force =    -0.00081304   -0.00046970   -0.01711291
     atom   19 type  1   force =     0.00000001    0.00456970    0.02697232
     atom   20 type  1   force =    -0.01480421   -0.00854694    0.00546597
     atom   21 type  1   force =     0.01480418   -0.00854672    0.00546596
     atom   22 type  1   force =     0.00644715   -0.00372249    0.03023616
     atom   23 type  1   force =     0.00000019    0.01709440    0.00546605
     atom   24 type  1   force =    -0.00644734   -0.00372233    0.03023609
     atom   25 type  1   force =    -0.00395698   -0.00228491    0.02697242
     atom   26 type  1   force =     0.00395720   -0.00228503    0.02697239
     atom   27 type  1   force =    -0.00000020    0.00744431    0.03023610
     atom   28 type  1   force =     0.00000013    0.00000080    0.11676508
     atom   29 type  1   force =     0.01368016    0.02159256    0.14644192
     atom   30 type  1   force =    -0.01368027    0.02159271    0.14644192
     atom   31 type  1   force =     0.02553922    0.00105116    0.14644217
     atom   32 type  1   force =     0.00000006   -0.00000022    0.00912566
     atom   33 type  1   force =    -0.02553925    0.00105136    0.14644214
     atom   34 type  1   force =     0.01185910   -0.02264395    0.14644191
     atom   35 type  1   force =    -0.01185891   -0.02264388    0.14644183
     atom   36 type  1   force =    -0.00000021   -0.00000056    0.12124726
     atom   37 type  2   force =     0.00000000    0.00000001    0.79621393
     atom   38 type  3   force =     0.00000000    0.00000005   -2.76157211
     The ionic contribution  to forces
     atom    1 type  1   force =     0.00000369    0.00005256   74.57985717
     atom    2 type  1   force =    -0.03540108   -0.00560630   74.43354206
     atom    3 type  1   force =     0.03539793   -0.00560424   74.43354148
     atom    4 type  1   force =    -0.02259938   -0.02782271   74.43356651
     atom    5 type  1   force =     0.00000029    0.00000735   74.43402617
     atom    6 type  1   force =     0.02259929   -0.02781888   74.43356773
     atom    7 type  1   force =     0.01280192    0.03342875   74.43356263
     atom    8 type  1   force =    -0.01279844    0.03343052   74.43356442
     atom    9 type  1   force =    -0.00000385   -0.00005631   74.40816677
     atom   10 type  1   force =    -0.05963841   -0.03436938  221.53415501
     atom   11 type  1   force =    -0.00000099    0.08504631  221.58559357
     atom   12 type  1   force =     0.05963945   -0.03436575  221.53415449
     atom   13 type  1   force =     0.07359738   -0.04249227  221.58561440
     atom   14 type  1   force =    -0.07359440   -0.04248950  221.58561382
     atom   15 type  1   force =    -0.00000321   -0.04601760  221.40201140
     atom   16 type  1   force =     0.00000397    0.06880118  221.53419153
     atom   17 type  1   force =    -0.03985404    0.02294336  221.40202746
     atom   18 type  1   force =     0.03984952    0.02294422  221.40202754
     atom   19 type  1   force =     0.00000337   -0.05263943  368.01447719
     atom   20 type  1   force =    -0.11111619   -0.06409094  370.68790611
     atom   21 type  1   force =     0.11111360   -0.06408818  370.68790560
     atom   22 type  1   force =    -0.04013977    0.02315653  368.88428560
     atom   23 type  1   force =     0.00000107    0.12828852  370.68789714
     atom   24 type  1   force =     0.04013893    0.02316016  368.88428513
     atom   25 type  1   force =     0.04564403    0.02630166  368.01447542
     atom   26 type  1   force =    -0.04564033    0.02630253  368.01447551
     atom   27 type  1   force =    -0.00000439   -0.04639898  368.88429102
     atom   28 type  1   force =     0.00000417    0.00004095  517.05112879
     atom   29 type  1   force =    -0.66912043   -0.89751446  515.67797531
     atom   30 type  1   force =     0.66911738   -0.89751269  515.67797713
     atom   31 type  1   force =    -1.11186430   -0.13068752  515.67795381
     atom   32 type  1   force =    -0.00000027    0.00001091  515.50231459
     atom   33 type  1   force =     1.11186441   -0.13068367  515.67795504
     atom   34 type  1   force =    -0.44274217    1.02819691  515.67795023
     atom   35 type  1   force =     0.44274518    1.02819899  515.67794966
     atom   36 type  1   force =    -0.00000387   -0.00005382  517.83992434
     atom   37 type  2   force =    -0.00000002    0.00000077  208.34391707
     atom   38 type  3   force =    -0.00000001    0.00000040  337.00763939
     The local contribution  to forces
     atom    1 type  1   force =    -0.00000383   -0.00005305  -74.46487718
     atom    2 type  1   force =     0.03592703    0.01283242  -74.32639602
     atom    3 type  1   force =    -0.03592377    0.01283011  -74.32639539
     atom    4 type  1   force =     0.02912067    0.02466527  -74.32642007
     atom    5 type  1   force =    -0.00000046   -0.00000718  -74.31604856
     atom    6 type  1   force =    -0.02912037    0.02466116  -74.32642131
     atom    7 type  1   force =    -0.00680676   -0.03749716  -74.32641650
     atom    8 type  1   force =     0.00680295   -0.03749885  -74.32641838
     atom    9 type  1   force =     0.00000416    0.00005662  -74.29814643
     atom   10 type  1   force =     0.06433283    0.03707970 -221.50957197
     atom   11 type  1   force =     0.00000102   -0.08584052 -221.55276417
     atom   12 type  1   force =    -0.06433390    0.03707565 -221.50957137
     atom   13 type  1   force =    -0.07428518    0.04288977 -221.55278486
     atom   14 type  1   force =     0.07428184    0.04288670 -221.55278430
     atom   15 type  1   force =     0.00000356    0.04496493 -221.38497157
     atom   16 type  1   force =    -0.00000433   -0.07422192 -221.50960834
     atom   17 type  1   force =     0.03894226   -0.02241686 -221.38498758
     atom   18 type  1   force =    -0.03893741   -0.02241789 -221.38498758
     atom   19 type  1   force =    -0.00000333    0.04833402 -368.04201389
     atom   20 type  1   force =     0.12495895    0.07208325 -370.69367548
     atom   21 type  1   force =    -0.12495634    0.07208017 -370.69367497
     atom   22 type  1   force =     0.03346259   -0.01930102 -368.91561489
     atom   23 type  1   force =    -0.00000137   -0.14427263 -370.69366662
     atom   24 type  1   force =    -0.03346140   -0.01930486 -368.91561428
     atom   25 type  1   force =    -0.04191562   -0.02414939 -368.04201230
     atom   26 type  1   force =     0.04191161   -0.02414998 -368.04201235
     atom   27 type  1   force =     0.00000465    0.03868828 -368.91562024
     atom   28 type  1   force =    -0.00000432   -0.00004145 -517.15083499
     atom   29 type  1   force =     0.65572673    0.87671807 -515.80721781
     atom   30 type  1   force =    -0.65572357    0.87671603 -515.80721964
     atom   31 type  1   force =     1.08715748    0.12948663 -515.80719673
     atom   32 type  1   force =     0.00000018   -0.00001063 -515.54073646
     atom   33 type  1   force =    -1.08715754    0.12948251 -515.80719792
     atom   34 type  1   force =     0.43142902   -1.00619928 -515.80719297
     atom   35 type  1   force =    -0.43143228   -1.00620148 -515.80719225
     atom   36 type  1   force =     0.00000414    0.00005399 -517.94374505
     atom   37 type  2   force =     0.00000001   -0.00000080 -209.13337584
     atom   38 type  3   force =     0.00000003   -0.00000045 -334.26346141
     The core correction contribution to forces
     atom    1 type  1   force =    -0.00000001   -0.00000007    0.01670913
     atom    2 type  1   force =    -0.00011722    0.00013942    0.01691347
     atom    3 type  1   force =     0.00011723    0.00013942    0.01691347
     atom    4 type  1   force =     0.00006218   -0.00017126    0.01691345
     atom    5 type  1   force =     0.00000000   -0.00000000    0.01634001
     atom    6 type  1   force =    -0.00006218   -0.00017127    0.01691344
     atom    7 type  1   force =     0.00017941    0.00003183    0.01691344
     atom    8 type  1   force =    -0.00017942    0.00003183    0.01691344
     atom    9 type  1   force =     0.00000001    0.00000005    0.01694878
     atom   10 type  1   force =     0.00037890    0.00021869   -0.00039962
     atom   11 type  1   force =     0.00000000   -0.00039082   -0.00105720
     atom   12 type  1   force =    -0.00037890    0.00021869   -0.00039962
     atom   13 type  1   force =    -0.00033840    0.00019537   -0.00105723
     atom   14 type  1   force =     0.00033840    0.00019537   -0.00105723
     atom   15 type  1   force =     0.00000000    0.00009316    0.00011559
     atom   16 type  1   force =    -0.00000000   -0.00043745   -0.00039967
     atom   17 type  1   force =     0.00008068   -0.00004650    0.00011558
     atom   18 type  1   force =    -0.00008068   -0.00004651    0.00011557
     atom   19 type  1   force =    -0.00000001   -0.00016871    0.00050584
     atom   20 type  1   force =     0.00116486    0.00067247    0.00057683
     atom   21 type  1   force =    -0.00116486    0.00067247    0.00057683
     atom   22 type  1   force =     0.00027362   -0.00015797    0.00112885
     atom   23 type  1   force =     0.00000000   -0.00134506    0.00057684
     atom   24 type  1   force =    -0.00027362   -0.00015798    0.00112886
     atom   25 type  1   force =     0.00014605    0.00008440    0.00050585
     atom   26 type  1   force =    -0.00014605    0.00008439    0.00050585
     atom   27 type  1   force =     0.00000000    0.00031602    0.00112886
     atom   28 type  1   force =    -0.00000000   -0.00000006   -0.01722685
     atom   29 type  1   force =    -0.00032235   -0.00068018   -0.01711697
     atom   30 type  1   force =     0.00032235   -0.00068018   -0.01711697
     atom   31 type  1   force =    -0.00075017    0.00006091   -0.01711694
     atom   32 type  1   force =    -0.00000000    0.00000001    0.02458430
     atom   33 type  1   force =     0.00075017    0.00006090   -0.01711695
     atom   34 type  1   force =    -0.00042783    0.00061929   -0.01711694
     atom   35 type  1   force =     0.00042783    0.00061928   -0.01711694
     atom   36 type  1   force =     0.00000000    0.00000006   -0.01765526
     atom   37 type  2   force =     0.00000001    0.00000005   -0.00378511
     atom   38 type  3   force =     0.00000000   -0.00000000    0.01805321
     The Hubbard contrib.    to forces
     atom    1 type  1   force =     0.00000000    0.00000000    0.00000000
     atom    2 type  1   force =     0.00000000    0.00000000    0.00000000
     atom    3 type  1   force =     0.00000000    0.00000000    0.00000000
     atom    4 type  1   force =     0.00000000    0.00000000    0.00000000
     atom    5 type  1   force =     0.00000000    0.00000000    0.00000000
     atom    6 type  1   force =     0.00000000    0.00000000    0.00000000
     atom    7 type  1   force =     0.00000000    0.00000000    0.00000000
     atom    8 type  1   force =     0.00000000    0.00000000    0.00000000
     atom    9 type  1   force =     0.00000000    0.00000000    0.00000000
     atom   10 type  1   force =     0.00000000    0.00000000    0.00000000
     atom   11 type  1   force =     0.00000000    0.00000000    0.00000000
     atom   12 type  1   force =     0.00000000    0.00000000    0.00000000
     atom   13 type  1   force =     0.00000000    0.00000000    0.00000000
     atom   14 type  1   force =     0.00000000    0.00000000    0.00000000
     atom   15 type  1   force =     0.00000000    0.00000000    0.00000000
     atom   16 type  1   force =     0.00000000    0.00000000    0.00000000
     atom   17 type  1   force =     0.00000000    0.00000000    0.00000000
     atom   18 type  1   force =     0.00000000    0.00000000    0.00000000
     atom   19 type  1   force =     0.00000000    0.00000000    0.00000000
     atom   20 type  1   force =     0.00000000    0.00000000    0.00000000
     atom   21 type  1   force =     0.00000000    0.00000000    0.00000000
     atom   22 type  1   force =     0.00000000    0.00000000    0.00000000
     atom   23 type  1   force =     0.00000000    0.00000000    0.00000000
     atom   24 type  1   force =     0.00000000    0.00000000    0.00000000
     atom   25 type  1   force =     0.00000000    0.00000000    0.00000000
     atom   26 type  1   force =     0.00000000    0.00000000    0.00000000
     atom   27 type  1   force =     0.00000000    0.00000000    0.00000000
     atom   28 type  1   force =     0.00000000    0.00000000    0.00000000
     atom   29 type  1   force =     0.00000000    0.00000000    0.00000000
     atom   30 type  1   force =     0.00000000    0.00000000    0.00000000
     atom   31 type  1   force =     0.00000000    0.00000000    0.00000000
     atom   32 type  1   force =     0.00000000    0.00000000    0.00000000
     atom   33 type  1   force =     0.00000000    0.00000000    0.00000000
     atom   34 type  1   force =     0.00000000    0.00000000    0.00000000
     atom   35 type  1   force =     0.00000000    0.00000000    0.00000000
     atom   36 type  1   force =     0.00000000    0.00000000    0.00000000
     atom   37 type  2   force =     0.00000000    0.00000000    0.00000000
     atom   38 type  3   force =     0.00000000    0.00000000    0.00000000
     The SCF correction term to forces
     atom    1 type  1   force =     0.00000000    0.00000000    0.00000000
     atom    2 type  1   force =     0.00000000    0.00000000    0.00000000
     atom    3 type  1   force =     0.00000000    0.00000000    0.00000000
     atom    4 type  1   force =     0.00000000    0.00000000    0.00000000
     atom    5 type  1   force =     0.00000000    0.00000000    0.00000000
     atom    6 type  1   force =     0.00000000    0.00000000    0.00000000
     atom    7 type  1   force =     0.00000000    0.00000000    0.00000000
     atom    8 type  1   force =     0.00000000    0.00000000    0.00000000
     atom    9 type  1   force =     0.00000000    0.00000000    0.00000000
     atom   10 type  1   force =     0.00000009    0.00000006   -0.00000026
     atom   11 type  1   force =    -0.00000001   -0.00000012   -0.00000057
     atom   12 type  1   force =    -0.00000008    0.00000055   -0.00000037
     atom   13 type  1   force =    -0.00000017   -0.00000036   -0.00000063
     atom   14 type  1   force =     0.00000054   -0.00000004   -0.00000065
     atom   15 type  1   force =    -0.00000040    0.00000016   -0.00000021
     atom   16 type  1   force =     0.00000044    0.00000004   -0.00000038
     atom   17 type  1   force =     0.00000024   -0.00000030   -0.00000017
     atom   18 type  1   force =    -0.00000066   -0.00000012   -0.00000025
     atom   19 type  1   force =    -0.00000005    0.00000032   -0.00000092
     atom   20 type  1   force =    -0.00000031   -0.00000044   -0.00000082
     atom   21 type  1   force =     0.00000037    0.00000005   -0.00000086
     atom   22 type  1   force =    -0.00000105    0.00000007   -0.00000081
     atom   23 type  1   force =     0.00000038    0.00000000   -0.00000078
     atom   24 type  1   force =     0.00000064    0.00000025   -0.00000093
     atom   25 type  1   force =    -0.00000013    0.00000033   -0.00000084
     atom   26 type  1   force =     0.00000052    0.00000002   -0.00000086
     atom   27 type  1   force =    -0.00000034   -0.00000064   -0.00000084
     atom   28 type  1   force =     0.00000020    0.00000024    0.00000037
     atom   29 type  1   force =     0.00000011   -0.00000036    0.00000035
     atom   30 type  1   force =    -0.00000023   -0.00000010    0.00000046
     atom   31 type  1   force =    -0.00000037    0.00000007    0.00000036
     atom   32 type  1   force =     0.00000013   -0.00000018    0.00000031
     atom   33 type  1   force =     0.00000025    0.00000040    0.00000030
     atom   34 type  1   force =    -0.00000038   -0.00000001    0.00000060
     atom   35 type  1   force =     0.00000063    0.00000006    0.00000044
     atom   36 type  1   force =    -0.00000028   -0.00000005    0.00000011
     atom   37 type  2   force =     0.00000002   -0.00000002   -0.00000006
     atom   38 type  3   force =     0.00000000   -0.00000001    0.00000082

     Total force =     0.005675     Total SCF correction =     0.000004

     Writing all to output data dir tmp/Cu-vib.save/

     General routines

     Parallel routines

     PAW routines

   This run was terminated on:   3: 7:24   7Oct2024

   JOB DONE.