     Program PWSCF v.7.2 starts on 15Oct2024 at 23:27:46

     Reading input from Cu-vib.pwi
Warning: card &CELL ignored
Warning: card / ignored

     Current dimensions of program PWSCF are:
     Max number of different atomic species (ntypx) = 10
     Max number of k-points (npk) =  40000
     Max angular momentum in pseudopotentials (lmaxx) =  4
     file Cu.pbe-dn-kjpaw_psl.1.0.0.UPF: wavefunction(s)  4S 3D renormalized
     file C.pbe-n-kjpaw_psl.1.0.0.UPF: wavefunction(s)  2S 2P renormalized
     file O.pbe-n-kjpaw_psl.1.0.0.UPF: wavefunction(s)  2S 2P renormalized

     IMPORTANT: XC functional enforced from input :
     Exchange-correlation= BEEF-VDW
                           (   1   4  43  14   2   0   0)
     Any further DFT definition will be discarded
     Please, verify this is what you really want

     K-points division:     npool     =       2
     R & G space division:  proc/nbgrp/npool/nimage =      96
     Subspace diagonalization in iterative solution of the eigenvalue problem:
     one sub-group per band group will be used

     Using Slab Decomposition

     Title:
     Cu-vib

     bravais-lattice index     =            0
     lattice parameter (alat)  =      14.6292  a.u.
     unit-cell volume          =    7467.4528 (a.u.)^3
     number of atoms/cell      =           38
     number of atomic types    =            3
     number of electrons       =       406.00
     number of Kohn-Sham states=          244
     kinetic-energy cutoff     =      62.4738  Ry
     charge density cutoff     =     624.7385  Ry
     scf convergence threshold =      7.3E-12
     mixing beta               =       0.3333
     number of iterations used =           12  plain     mixing
     Exchange-correlation= BEEF-VDW
                           (   1   4  43  14   2   0   0)

     Effective Screening Medium Method
     Boundary Conditions: Vacuum-Slab-Metal
     total charge in unit cell        =   0.0000
     grid points for fit at edges     =        4

     celldm(1)=  14.629161  celldm(2)=   0.000000  celldm(3)=   0.000000
     celldm(4)=   0.000000  celldm(5)=   0.000000  celldm(6)=   0.000000

     crystal axes: (cart. coord. in units of alat)
               a(1) = (   1.000000   0.000000   0.000000 )
               a(2) = (   0.500000   0.866025   0.000000 )
               a(3) = (   0.000000   0.000000   2.754126 )

     reciprocal axes: (cart. coord. in units 2 pi/alat)
               b(1) = (  1.000000 -0.577351  0.000000 )
               b(2) = (  0.000000  1.154701  0.000000 )
               b(3) = (  0.000000  0.000000  0.363092 )

     PseudoPot. # 1 for Cu read from file:
     /home/k0227/k022716/QE/pseudo/Cu.pbe-dn-kjpaw_psl.1.0.0.UPF
     MD5 check sum: 67c40f9e1593dc2d139023e70404cc2a
     Pseudo is Projector augmented-wave + core cor, Zval = 11.0
     Generated using "atomic" code by A. Dal Corso  v.6.1 svn rev. 13369
     Shape of augmentation charge: PSQ
     Using radial grid of 1199 points,  6 beta functions with:
                l(1) =   0
                l(2) =   0
                l(3) =   1
                l(4) =   1
                l(5) =   2
                l(6) =   2
     Q(r) pseudized with 0 coefficients

     PseudoPot. # 2 for C  read from file:
     /home/k0227/k022716/QE/pseudo/C.pbe-n-kjpaw_psl.1.0.0.UPF
     MD5 check sum: 92a742b3ac0ce1af44b5aa3f9352ca21
     Pseudo is Projector augmented-wave + core cor, Zval =  4.0
     Generated using "atomic" code by A. Dal Corso  v.6.1 svn rev. 13369
     Shape of augmentation charge: PSQ
     Using radial grid of 1073 points,  4 beta functions with:
                l(1) =   0
                l(2) =   0
                l(3) =   1
                l(4) =   1
     Q(r) pseudized with 0 coefficients

     PseudoPot. # 3 for O  read from file:
     /home/k0227/k022716/QE/pseudo/O.pbe-n-kjpaw_psl.1.0.0.UPF
     MD5 check sum: c61d840054b6bba219e553541e327118
     Pseudo is Projector augmented-wave + core cor, Zval =  6.0
     Generated using "atomic" code by A. Dal Corso  v.6.1 svn rev. 13369
     Shape of augmentation charge: PSQ
     Using radial grid of 1095 points,  4 beta functions with:
                l(1) =   0
                l(2) =   0
                l(3) =   1
                l(4) =   1
     Q(r) pseudized with 0 coefficients

     atomic species   valence    mass     pseudopotential
        Cu            11.00    63.54600     Cu( 1.00)
        C              4.00    12.01100     C ( 1.00)
        O              6.00    15.99900     O ( 1.00)

     No symmetry found

                                    s                        frac. trans.

      isym =  1     identity

 cryst.   s( 1) = (     1          0          0      )
                  (     0          1          0      )
                  (     0          0          1      )

 cart.    s( 1) = (  1.0000000  0.0000000  0.0000000 )
                  (  0.0000000  1.0000000  0.0000000 )
                  (  0.0000000  0.0000000  1.0000000 )

   Cartesian axes

     site n.     atom                  positions (alat units)
         1           Cu  tau(   1) = (   0.0000000   0.0000000  -0.8213672  )
         2           Cu  tau(   2) = (   0.3333333   0.0000000  -0.8213672  )
         3           Cu  tau(   3) = (   0.6666667   0.0000000  -0.8213672  )
         4           Cu  tau(   4) = (   0.1666667   0.2886751  -0.8213672  )
         5           Cu  tau(   5) = (   0.5000000   0.2886751  -0.8213672  )
         6           Cu  tau(   6) = (   0.8333334   0.2886751  -0.8213672  )
         7           Cu  tau(   7) = (   0.3333333   0.5773503  -0.8213672  )
         8           Cu  tau(   8) = (   0.6666667   0.5773503  -0.8213672  )
         9           Cu  tau(   9) = (   1.0000000   0.5773503  -0.8213672  )
        10           Cu  tau(  10) = (   0.1676727   0.0968059  -0.5514396  )
        11           Cu  tau(  11) = (   0.5000000   0.0962354  -0.5516367  )
        12           Cu  tau(  12) = (   0.8323273   0.0968059  -0.5514396  )
        13           Cu  tau(  13) = (   0.3333423   0.3848950  -0.5516367  )
        14           Cu  tau(  14) = (   0.6666577   0.3848950  -0.5516367  )
        15           Cu  tau(  15) = (   1.0000000   0.3850131  -0.5516280  )
        16           Cu  tau(  16) = (   0.5000000   0.6724137  -0.5514396  )
        17           Cu  tau(  17) = (   0.8334311   0.6735189  -0.5516280  )
        18           Cu  tau(  18) = (   1.1665689   0.6735189  -0.5516280  )
        19           Cu  tau(  19) = (  -0.0000000   0.1920201  -0.2839447  )
        20           Cu  tau(  20) = (   0.3352745   0.1935708  -0.2785144  )
        21           Cu  tau(  21) = (   0.6647256   0.1935708  -0.2785144  )
        22           Cu  tau(  22) = (   0.1667977   0.4810496  -0.2820819  )
        23           Cu  tau(  23) = (   0.5000000   0.4788838  -0.2785144  )
        24           Cu  tau(  24) = (   0.8332023   0.4810496  -0.2820820  )
        25           Cu  tau(  25) = (   0.3337057   0.7700154  -0.2839447  )
        26           Cu  tau(  26) = (   0.6662943   0.7700154  -0.2839447  )
        27           Cu  tau(  27) = (   1.0000000   0.7699517  -0.2820820  )
        28           Cu  tau(  28) = (  -0.0000000   0.0000000  -0.0141647  )
        29           Cu  tau(  29) = (   0.3320845  -0.0026669  -0.0142096  )
        30           Cu  tau(  30) = (   0.6679155  -0.0026669  -0.0142096  )
        31           Cu  tau(  31) = (   0.1637326   0.2889271  -0.0142096  )
        32           Cu  tau(  32) = (   0.5000000   0.2886751   0.0033392  )
        33           Cu  tau(  33) = (   0.8362674   0.2889271  -0.0142096  )
        34           Cu  tau(  34) = (   0.3316481   0.5797653  -0.0142096  )
        35           Cu  tau(  35) = (   0.6683519   0.5797653  -0.0142096  )
        36           Cu  tau(  36) = (   1.0000000   0.5773503  -0.0124621  )
        37           C   tau(  37) = (   0.5000000   0.2886751   0.2446580  )
        38           O   tau(  38) = (   0.5000000   0.2886751   0.3932598  )

   Crystallographic axes

     site n.     atom                  positions (cryst. coord.)
         1           Cu  tau(   1) = (  0.0000000  0.0000000 -0.2982315  )
         2           Cu  tau(   2) = (  0.3333333  0.0000000 -0.2982315  )
         3           Cu  tau(   3) = (  0.6666667  0.0000000 -0.2982315  )
         4           Cu  tau(   4) = ( -0.0000001  0.3333335 -0.2982315  )
         5           Cu  tau(   5) = (  0.3333333  0.3333335 -0.2982315  )
         6           Cu  tau(   6) = (  0.6666666  0.3333335 -0.2982315  )
         7           Cu  tau(   7) = ( -0.0000002  0.6666670 -0.2982315  )
         8           Cu  tau(   8) = (  0.3333332  0.6666670 -0.2982315  )
         9           Cu  tau(   9) = (  0.6666665  0.6666670 -0.2982315  )
        10           Cu  tau(  10) = (  0.1117818  0.1117819 -0.2002231  )
        11           Cu  tau(  11) = (  0.4444385  0.1111231 -0.2002946  )
        12           Cu  tau(  12) = (  0.7764364  0.1117819 -0.2002231  )
        13           Cu  tau(  13) = (  0.1111230  0.4444387 -0.2002946  )
        14           Cu  tau(  14) = (  0.4444384  0.4444387 -0.2002946  )
        15           Cu  tau(  15) = (  0.7777125  0.4445750 -0.2002915  )
        16           Cu  tau(  16) = (  0.1117816  0.7764368 -0.2002231  )
        17           Cu  tau(  17) = (  0.4445746  0.7777130 -0.2002915  )
        18           Cu  tau(  18) = (  0.7777124  0.7777130 -0.2002915  )
        19           Cu  tau(  19) = ( -0.1108629  0.2217258 -0.1030979  )
        20           Cu  tau(  20) = (  0.2235163  0.2235164 -0.1011262  )
        21           Cu  tau(  21) = (  0.5529674  0.2235164 -0.1011262  )
        22           Cu  tau(  22) = ( -0.1109366  0.5554685 -0.1024216  )
        23           Cu  tau(  23) = (  0.2235162  0.5529677 -0.1011262  )
        24           Cu  tau(  24) = (  0.5554681  0.5554685 -0.1024216  )
        25           Cu  tau(  25) = ( -0.1108631  0.8891376 -0.1030979  )
        26           Cu  tau(  26) = (  0.2217255  0.8891376 -0.1030979  )
        27           Cu  tau(  27) = (  0.5554680  0.8890640 -0.1024216  )
        28           Cu  tau(  28) = ( -0.0000000  0.0000000 -0.0051431  )
        29           Cu  tau(  29) = (  0.3336243 -0.0030795 -0.0051594  )
        30           Cu  tau(  30) = (  0.6694553 -0.0030795 -0.0051594  )
        31           Cu  tau(  31) = ( -0.0030796  0.3336244 -0.0051594  )
        32           Cu  tau(  32) = (  0.3333333  0.3333335  0.0012124  )
        33           Cu  tau(  33) = (  0.6694552  0.3336244 -0.0051594  )
        34           Cu  tau(  34) = ( -0.0030796  0.6694556 -0.0051594  )
        35           Cu  tau(  35) = (  0.3336241  0.6694556 -0.0051594  )
        36           Cu  tau(  36) = (  0.6666665  0.6666670 -0.0045249  )
        37           C   tau(  37) = (  0.3333333  0.3333335  0.0888333  )
        38           O   tau(  38) = (  0.3333333  0.3333335  0.1427893  )

     number of k points=    64  Marzari-Vanderbilt smearing, width (Ry)=  0.0073
                       cart. coord. in units 2pi/alat
        k(    1) = (   0.0000000   0.0000000   0.0000000), wk =   0.0312500
[...]
     atom   15 type  1   force =    -0.00000015    0.00104814   -0.01713750
     atom   16 type  1   force =     0.00000010    0.00589936   -0.02420545
     atom   17 type  1   force =     0.00090782   -0.00052459   -0.01713743
     atom   18 type  1   force =    -0.00090790   -0.00052448   -0.01713745
     atom   19 type  1   force =    -0.00000002    0.00442196    0.02705035
     atom   20 type  1   force =    -0.01480301   -0.00854622    0.00561125
     atom   21 type  1   force =     0.01480302   -0.00854612    0.00561123
     atom   22 type  1   force =     0.00642275   -0.00370828    0.03020276
     atom   23 type  1   force =     0.00000009    0.01709308    0.00561131
     atom   24 type  1   force =    -0.00642284   -0.00370826    0.03020273
     atom   25 type  1   force =    -0.00382916   -0.00221109    0.02705040
     atom   26 type  1   force =     0.00382921   -0.00221118    0.02705041
     atom   27 type  1   force =    -0.00000006    0.00741605    0.03020270
     atom   28 type  1   force =     0.00000004    0.00000079    0.11629874
     atom   29 type  1   force =     0.01387600    0.02149138    0.14653711
     atom   30 type  1   force =    -0.01387604    0.02149148    0.14653712
     atom   31 type  1   force =     0.02554944    0.00127137    0.14653738
     atom   32 type  1   force =     0.00000005   -0.00000023    0.00919435
     atom   33 type  1   force =    -0.02554952    0.00127147    0.14653735
     atom   34 type  1   force =     0.01167350   -0.02276286    0.14653706
     atom   35 type  1   force =    -0.01167338   -0.02276286    0.14653704
     atom   36 type  1   force =    -0.00000011   -0.00000054    0.12117730
     atom   37 type  2   force =     0.00000003   -0.00000003    0.79609450
     atom   38 type  3   force =    -0.00000006    0.00000007   -2.76156127
     The ionic contribution  to forces
     atom    1 type  1   force =     0.00000363    0.00005265   74.57848038
     atom    2 type  1   force =    -0.03508699   -0.00313801   74.43255817
     atom    3 type  1   force =     0.03508391   -0.00313589   74.43255773
     atom    4 type  1   force =    -0.02030478   -0.02878487   74.43258273
     atom    5 type  1   force =     0.00000030    0.00000732   74.43825202
     atom    6 type  1   force =     0.02030466   -0.02878115   74.43258399
     atom    7 type  1   force =     0.01478247    0.03192263   74.43257883
     atom    8 type  1   force =    -0.01477903    0.03192440   74.43258055
     atom    9 type  1   force =    -0.00000381   -0.00005630   74.40604434
     atom   10 type  1   force =    -0.05802070   -0.03343500  221.53828184
     atom   11 type  1   force =    -0.00000085    0.09219573  221.59004370
     atom   12 type  1   force =     0.05802153   -0.03343142  221.53828199
     atom   13 type  1   force =     0.07978880   -0.04606687  221.59006460
     atom   14 type  1   force =    -0.07978590   -0.04606428  221.59006369
     atom   15 type  1   force =    -0.00000310   -0.04050882  221.39646662
     atom   16 type  1   force =     0.00000385    0.06693276  221.53831842
     atom   17 type  1   force =    -0.03508310    0.02018881  221.39648286
     atom   18 type  1   force =     0.03507868    0.02018963  221.39648307
     atom   19 type  1   force =     0.00000353   -0.05745450  368.00269711
     atom   20 type  1   force =    -0.10823074   -0.06242483  370.68053164
     atom   21 type  1   force =     0.10822798   -0.06242172  370.68053051
     atom   22 type  1   force =    -0.04281133    0.02469873  368.90097724
     atom   23 type  1   force =     0.00000130    0.12495648  370.68052285
     atom   24 type  1   force =     0.04281030    0.02470247  368.90097617
     atom   25 type  1   force =     0.04981421    0.02870906  368.00269614
     atom   26 type  1   force =    -0.04981041    0.02871006  368.00269480
     atom   27 type  1   force =    -0.00000457   -0.04948389  368.90098213
     atom   28 type  1   force =     0.00000430    0.00004102  516.97573800
     atom   29 type  1   force =    -0.65886522   -0.90482721  515.70797559
     atom   30 type  1   force =     0.65886209   -0.90482581  515.70797681
     atom   31 type  1   force =    -1.11306985   -0.11814973  515.70795455
     atom   32 type  1   force =    -0.00000040    0.00001159  515.47613640
     atom   33 type  1   force =     1.11307006   -0.11814544  515.70795452
     atom   34 type  1   force =    -0.45420282    1.02297186  515.70795062
     atom   35 type  1   force =     0.45420595    1.02297362  515.70794958
     atom   36 type  1   force =    -0.00000404   -0.00005409  517.76675228
     atom   37 type  2   force =    -0.00000014    0.00000083  208.34199460
     atom   38 type  3   force =     0.00000021    0.00000018  337.00777119
     The local contribution  to forces
     atom    1 type  1   force =    -0.00000367   -0.00005310  -74.46349810
     atom    2 type  1   force =     0.03561741    0.01038505  -74.32542998
     atom    3 type  1   force =    -0.03561431    0.01038285  -74.32542954
     atom    4 type  1   force =     0.02684646    0.02562081  -74.32545418
     atom    5 type  1   force =    -0.00000041   -0.00000711  -74.32025740
     atom    6 type  1   force =    -0.02684620    0.02561701  -74.32545543
     atom    7 type  1   force =    -0.00877130   -0.03600550  -74.32545060
     atom    8 type  1   force =     0.00876777   -0.03600721  -74.32545235
     atom    9 type  1   force =     0.00000392    0.00005652  -74.29597055
     atom   10 type  1   force =     0.06272211    0.03614927 -221.51370027
     atom   11 type  1   force =     0.00000077   -0.09302327 -221.55722331
     atom   12 type  1   force =    -0.06272290    0.03614551 -221.51370043
     atom   13 type  1   force =    -0.08050541    0.04648092 -221.55724411
     atom   14 type  1   force =     0.08050234    0.04647825 -221.55724318
     atom   15 type  1   force =     0.00000331    0.03939742 -221.37944596
     atom   16 type  1   force =    -0.00000399   -0.07236157 -221.51373677
     atom   17 type  1   force =     0.03412039   -0.01963301 -221.37946217
     atom   18 type  1   force =    -0.03411587   -0.01963399 -221.37946228
     atom   19 type  1   force =    -0.00000345    0.05317377 -368.03021798
     atom   20 type  1   force =     0.12209976    0.07043226 -370.68632247
     atom   21 type  1   force =    -0.12209706    0.07042903 -370.68632134
     atom   22 type  1   force =     0.03611195   -0.02083059 -368.93227046
     atom   23 type  1   force =    -0.00000146   -0.14097102 -370.68631379
     atom   24 type  1   force =    -0.03611074   -0.02083437 -368.93226934
     atom   25 type  1   force =    -0.04610701   -0.02656907 -368.03021718
     atom   26 type  1   force =     0.04610318   -0.02656985 -368.03021580
     atom   27 type  1   force =     0.00000461    0.04174768 -368.93227533
     atom   28 type  1   force =    -0.00000430   -0.00004151 -517.07488408
     atom   29 type  1   force =     0.64537838    0.88407980 -515.83740378
     atom   30 type  1   force =    -0.64537527    0.88407827 -515.83740498
     atom   31 type  1   force =     1.08835901    0.11684365 -515.83738316
     atom   32 type  1   force =     0.00000032   -0.00001127 -515.51455561
     atom   33 type  1   force =    -1.08835914    0.11683927 -515.83738308
     atom   34 type  1   force =     0.44297873   -1.00091828 -515.83737897
     atom   35 type  1   force =    -0.44298198   -1.00092002 -515.83737786
     atom   36 type  1   force =     0.00000416    0.00005424 -517.87031998
     atom   37 type  2   force =     0.00000010   -0.00000080 -209.13143884
     atom   38 type  3   force =    -0.00000019   -0.00000026 -334.26356132
     The core correction contribution to forces
     atom    1 type  1   force =    -0.00000001   -0.00000007    0.01669891
     atom    2 type  1   force =    -0.00011680    0.00013813    0.01690453
     atom    3 type  1   force =     0.00011680    0.00013813    0.01690453
     atom    4 type  1   force =     0.00006128   -0.00017025    0.01690451
     atom    5 type  1   force =     0.00000000   -0.00000000    0.01632094
     atom    6 type  1   force =    -0.00006128   -0.00017025    0.01690451
     atom    7 type  1   force =     0.00017808    0.00003211    0.01690451
     atom    8 type  1   force =    -0.00017808    0.00003210    0.01690450
     atom    9 type  1   force =     0.00000001    0.00000005    0.01694003
     atom   10 type  1   force =     0.00037763    0.00021796   -0.00038013
     atom   11 type  1   force =    -0.00000000   -0.00040306   -0.00103704
     atom   12 type  1   force =    -0.00037763    0.00021795   -0.00038013
     atom   13 type  1   force =    -0.00034901    0.00020150   -0.00103706
     atom   14 type  1   force =     0.00034900    0.00020149   -0.00103706
     atom   15 type  1   force =     0.00000001    0.00008078    0.00012268
     atom   16 type  1   force =    -0.00000000   -0.00043598   -0.00038018
     atom   17 type  1   force =     0.00006996   -0.00004031    0.00012266
     atom   18 type  1   force =    -0.00006996   -0.00004032    0.00012266
     atom   19 type  1   force =    -0.00000001   -0.00015288    0.00049209
     atom   20 type  1   force =     0.00116228    0.00067098    0.00055930
     atom   21 type  1   force =    -0.00116228    0.00067098    0.00055930
     atom   22 type  1   force =     0.00027660   -0.00015970    0.00112665
     atom   23 type  1   force =     0.00000000   -0.00134208    0.00055931
     atom   24 type  1   force =    -0.00027660   -0.00015970    0.00112665
     atom   25 type  1   force =     0.00013234    0.00007648    0.00049210
     atom   26 type  1   force =    -0.00013234    0.00007648    0.00049210
     atom   27 type  1   force =     0.00000000    0.00031947    0.00112665
     atom   28 type  1   force =    -0.00000001   -0.00000006   -0.01720416
     atom   29 type  1   force =    -0.00033870   -0.00067037   -0.01711518
     atom   30 type  1   force =     0.00033870   -0.00067037   -0.01711518
     atom   31 type  1   force =    -0.00074985    0.00004184   -0.01711515
     atom   32 type  1   force =     0.00000000    0.00000000    0.02458735
     atom   33 type  1   force =     0.00074985    0.00004183   -0.01711516
     atom   34 type  1   force =    -0.00041116    0.00062854   -0.01711516
     atom   35 type  1   force =     0.00041115    0.00062854   -0.01711515
     atom   36 type  1   force =     0.00000000    0.00000006   -0.01765786
     atom   37 type  2   force =     0.00000001    0.00000004   -0.00378314
     atom   38 type  3   force =     0.00000000   -0.00000000    0.01805287
     The Hubbard contrib.    to forces
     atom    1 type  1   force =     0.00000000    0.00000000    0.00000000
     atom    2 type  1   force =     0.00000000    0.00000000    0.00000000
     atom    3 type  1   force =     0.00000000    0.00000000    0.00000000
     atom    4 type  1   force =     0.00000000    0.00000000    0.00000000
     atom    5 type  1   force =     0.00000000    0.00000000    0.00000000
     atom    6 type  1   force =     0.00000000    0.00000000    0.00000000
     atom    7 type  1   force =     0.00000000    0.00000000    0.00000000
     atom    8 type  1   force =     0.00000000    0.00000000    0.00000000
     atom    9 type  1   force =     0.00000000    0.00000000    0.00000000
     atom   10 type  1   force =     0.00000000    0.00000000    0.00000000
     atom   11 type  1   force =     0.00000000    0.00000000    0.00000000
     atom   12 type  1   force =     0.00000000    0.00000000    0.00000000
     atom   13 type  1   force =     0.00000000    0.00000000    0.00000000
     atom   14 type  1   force =     0.00000000    0.00000000    0.00000000
     atom   15 type  1   force =     0.00000000    0.00000000    0.00000000
     atom   16 type  1   force =     0.00000000    0.00000000    0.00000000
     atom   17 type  1   force =     0.00000000    0.00000000    0.00000000
     atom   18 type  1   force =     0.00000000    0.00000000    0.00000000
     atom   19 type  1   force =     0.00000000    0.00000000    0.00000000
     atom   20 type  1   force =     0.00000000    0.00000000    0.00000000
     atom   21 type  1   force =     0.00000000    0.00000000    0.00000000
     atom   22 type  1   force =     0.00000000    0.00000000    0.00000000
     atom   23 type  1   force =     0.00000000    0.00000000    0.00000000
     atom   24 type  1   force =     0.00000000    0.00000000    0.00000000
     atom   25 type  1   force =     0.00000000    0.00000000    0.00000000
     atom   26 type  1   force =     0.00000000    0.00000000    0.00000000
     atom   27 type  1   force =     0.00000000    0.00000000    0.00000000
     atom   28 type  1   force =     0.00000000    0.00000000    0.00000000
     atom   29 type  1   force =     0.00000000    0.00000000    0.00000000
     atom   30 type  1   force =     0.00000000    0.00000000    0.00000000
     atom   31 type  1   force =     0.00000000    0.00000000    0.00000000
     atom   32 type  1   force =     0.00000000    0.00000000    0.00000000
     atom   33 type  1   force =     0.00000000    0.00000000    0.00000000
     atom   34 type  1   force =     0.00000000    0.00000000    0.00000000
     atom   35 type  1   force =     0.00000000    0.00000000    0.00000000
     atom   36 type  1   force =     0.00000000    0.00000000    0.00000000
     atom   37 type  2   force =     0.00000000    0.00000000    0.00000000
     atom   38 type  3   force =     0.00000000    0.00000000    0.00000000
     The SCF correction term to forces
     atom    1 type  1   force =     0.00000000    0.00000000    0.00000000
     atom    2 type  1   force =     0.00000000    0.00000000    0.00000000
     atom    3 type  1   force =     0.00000000    0.00000000    0.00000000
     atom    4 type  1   force =     0.00000000    0.00000000    0.00000000
     atom    5 type  1   force =     0.00000000    0.00000000    0.00000000
     atom    6 type  1   force =     0.00000000    0.00000000    0.00000000
     atom    7 type  1   force =     0.00000000    0.00000000    0.00000000
     atom    8 type  1   force =     0.00000000    0.00000000    0.00000000
     atom    9 type  1   force =     0.00000000    0.00000000    0.00000000
     atom   10 type  1   force =     0.00000007    0.00000014    0.00000164
     atom   11 type  1   force =     0.00000008   -0.00000019    0.00000118
     atom   12 type  1   force =    -0.00000018    0.00000036    0.00000161
     atom   13 type  1   force =    -0.00000025   -0.00000021    0.00000114
     atom   14 type  1   force =     0.00000045   -0.00000012    0.00000113
     atom   15 type  1   force =    -0.00000024    0.00000022    0.00000169
     atom   16 type  1   force =     0.00000014    0.00000004    0.00000159
     atom   17 type  1   force =     0.00000041   -0.00000025    0.00000172
     atom   18 type  1   force =    -0.00000055   -0.00000010    0.00000168
     atom   19 type  1   force =    -0.00000010    0.00000031    0.00000168
     atom   20 type  1   force =    -0.00000037   -0.00000038    0.00000171
     atom   21 type  1   force =     0.00000051   -0.00000019    0.00000170
     atom   22 type  1   force =    -0.00000097    0.00000027    0.00000178
     atom   23 type  1   force =     0.00000018    0.00000019    0.00000176
     atom   24 type  1   force =     0.00000078    0.00000025    0.00000171
     atom   25 type  1   force =    -0.00000031    0.00000023    0.00000177
     atom   26 type  1   force =     0.00000040    0.00000004    0.00000176
     atom   27 type  1   force =    -0.00000007   -0.00000071    0.00000177
     atom   28 type  1   force =     0.00000003    0.00000023    0.00000167
     atom   29 type  1   force =     0.00000020   -0.00000043    0.00000170
     atom   30 type  1   force =    -0.00000015   -0.00000031    0.00000172
     atom   31 type  1   force =    -0.00000046    0.00000023    0.00000168
     atom   32 type  1   force =     0.00000011   -0.00000020    0.00000141
     atom   33 type  1   force =     0.00000037    0.00000033    0.00000162
     atom   34 type  1   force =    -0.00000058    0.00000013    0.00000182
     atom   35 type  1   force =     0.00000065    0.00000012    0.00000178
     atom   36 type  1   force =    -0.00000010   -0.00000001    0.00000143
     atom   37 type  2   force =     0.00000001   -0.00000002    0.00000025
     atom   38 type  3   force =     0.00000001   -0.00000001    0.00000058

     Total force =     0.005560     Total SCF correction =     0.000009

     Writing all to output data dir tmp/Cu-vib.save/

     General routines

     Parallel routines

     PAW routines

   This run was terminated on:   0: 7: 9  16Oct2024

   JOB DONE.