     Program PWSCF v.7.2 starts on 12Jul2024 at 18:55:42

     Reading input from Cu-1200-7.750918200505966.pwi
Warning: card &CELL ignored
Warning: card / ignored

     Current dimensions of program PWSCF are:
     Max number of different atomic species (ntypx) = 10
     Max number of k-points (npk) =  40000
     Max angular momentum in pseudopotentials (lmaxx) =  4
     file Cu.beef-dn-kjpaw_psl.1.0.0.UPF: wavefunction(s)  4S 3D renormalized
     file C.beef-n-kjpaw_psl.1.0.0.UPF: wavefunction(s)  2S 2P renormalized
     file O.beef-n-kjpaw_psl.1.0.0.UPF: wavefunction(s)  2P renormalized

     IMPORTANT: XC functional enforced from input :
     Exchange-correlation= BEEF-VDW
                           (   1   4  43  14   2   0   0)
     Any further DFT definition will be discarded
     Please, verify this is what you really want

     Message from routine setup:
     using ibrav=0 with symmetry is DISCOURAGED, use correct ibrav instead

     K-points division:     npool     =       2
     R & G space division:  proc/nbgrp/npool/nimage =      96
     Subspace diagonalization in iterative solution of the eigenvalue problem:
     one sub-group per band group will be used

     Using Slab Decomposition

     Title:
     Cu-1200-7.750918200505966

     bravais-lattice index     =            0
     lattice parameter (alat)  =      14.6471  a.u.
     unit-cell volume          =    7488.5176 (a.u.)^3
     number of atoms/cell      =           38
     number of atomic types    =            3
     number of electrons       =       406.00
     number of Kohn-Sham states=          244
     kinetic-energy cutoff     =      88.1984  Ry
     charge density cutoff     =     881.9837  Ry
     scf convergence threshold =      7.3E-12
     mixing beta               =       0.3333
     number of iterations used =           12  local-TF  mixing
     energy convergence thresh.=      7.3E-07
     force convergence thresh. =      3.9E-04
     Exchange-correlation= BEEF-VDW
                           (   1   4  43  14   2   0   0)
     nstep                     =           50

     Effective Screening Medium Method
     Boundary Conditions: Vacuum-Slab-Metal
     total charge in unit cell        =   0.0000
     grid points for fit at edges     =        4

     celldm(1)=  14.647113  celldm(2)=   0.000000  celldm(3)=   0.000000
     celldm(4)=   0.000000  celldm(5)=   0.000000  celldm(6)=   0.000000

     crystal axes: (cart. coord. in units of alat)
               a(1) = (   1.000000   0.000000   0.000000 )
               a(2) = (   0.500000   0.866025   0.000000 )
               a(3) = (   0.000000   0.000000   2.751751 )

     reciprocal axes: (cart. coord. in units 2 pi/alat)
               b(1) = (  1.000000 -0.577350  0.000000 )
               b(2) = (  0.000000  1.154701  0.000000 )
               b(3) = (  0.000000  0.000000  0.363405 )

     PseudoPot. # 1 for Cu read from file:
     /home/k0227/k022716/QE/pseudo/beef/Cu.beef-dn-kjpaw_psl.1.0.0.UPF
     MD5 check sum: 5c2e06f1363dd15696904a521997ce16
     Pseudo is Projector augmented-wave + core cor, Zval = 11.0
     Generated using 'atomic' code by A. Dal Corso  v.7.2
     Shape of augmentation charge: PSQ
     Using radial grid of 1199 points,  6 beta functions with:
                l(1) =   0
                l(2) =   0
                l(3) =   1
                l(4) =   1
                l(5) =   2
                l(6) =   2
     Q(r) pseudized with 0 coefficients

     PseudoPot. # 2 for C  read from file:
     /home/k0227/k022716/QE/pseudo/beef/C.beef-n-kjpaw_psl.1.0.0.UPF
     MD5 check sum: 3242be9e0015b82b0ed5ff45e65f34ec
     Pseudo is Projector augmented-wave + core cor, Zval =  4.0
     Generated using 'atomic' code by A. Dal Corso  v.7.2
     Shape of augmentation charge: PSQ
     Using radial grid of 1073 points,  4 beta functions with:
                l(1) =   0
                l(2) =   0
                l(3) =   1
                l(4) =   1
     Q(r) pseudized with 0 coefficients

     PseudoPot. # 3 for O  read from file:
     /home/k0227/k022716/QE/pseudo/beef/O.beef-n-kjpaw_psl.1.0.0.UPF
     MD5 check sum: be449223b47fa93bb079dbf01a63c6ce
     Pseudo is Projector augmented-wave + core cor, Zval =  6.0
     Generated using 'atomic' code by A. Dal Corso  v.7.2
     Shape of augmentation charge: PSQ
     Using radial grid of 1095 points,  4 beta functions with:
                l(1) =   0
                l(2) =   0
                l(3) =   1
                l(4) =   1
     Q(r) pseudized with 0 coefficients

     atomic species   valence    mass     pseudopotential
        Cu            11.00    63.54600     Cu( 1.00)
        C              4.00    12.01100     C ( 1.00)
        O              6.00    15.99900     O ( 1.00)

      6 Sym. Ops. (no inversion) found ( 4 have fractional translation)

                                    s                        frac. trans.

      isym =  1     identity

 cryst.   s( 1) = (     1          0          0      )
                  (     0          1          0      )
                  (     0          0          1      )

 cart.    s( 1) = (  1.0000000  0.0000000  0.0000000 )
                  (  0.0000000  1.0000000  0.0000000 )
                  (  0.0000000  0.0000000  1.0000000 )

      isym =  2     120 deg rotation - cryst. axis [0,0,1]

 cryst.   s( 2) = (    -1          1          0      )    f =( -0.3333333 )
                  (    -1          0          0      )       ( -0.0000000 )
                  (     0          0          1      )       (  0.0000000 )

 cart.    s( 2) = ( -0.5000000 -0.8660254  0.0000000 )    f =( -0.3333333 )
                  (  0.8660254 -0.5000000  0.0000000 )       ( -0.0000000 )
                  (  0.0000000  0.0000000  1.0000000 )       (  0.0000000 )

      isym =  3     120 deg rotation - cryst. axis [0,0,-1]

[...]

      isym =  4     inv. 180 deg rotation - cart. axis [1,0,0]

[...]

      isym =  5     inv. 180 deg rotation - cryst. axis [0,1,0]

 cryst.   s( 5) = (     0          1          0      )
                  (     1          0          0      )
                  (     0          0          1      )

 cart.    s( 5) = (  0.5000000  0.8660254  0.0000000 )
                  (  0.8660254 -0.5000000  0.0000000 )
                  (  0.0000000  0.0000000  1.0000000 )

      isym =  6     inv. 180 deg rotation - cryst. axis [1,1,0]

 cryst.   s( 6) = (     1         -1          0      )    f =( -0.0000000 )
                  (     0         -1          0      )       ( -0.3333333 )
                  (     0          0          1      )       (  0.0000000 )

 cart.    s( 6) = (  0.5000000 -0.8660254  0.0000000 )    f =( -0.1666667 )
                  ( -0.8660254 -0.5000000  0.0000000 )       ( -0.2886751 )
                  (  0.0000000  0.0000000  1.0000000 )       (  0.0000000 )

   Cartesian axes

     site n.     atom                  positions (alat units)
         1           Cu  tau(   1) = (   0.0000000   0.0000000  -0.8210110  )
         2           Cu  tau(   2) = (   0.3333333   0.0000000  -0.8210110  )
         3           Cu  tau(   3) = (   0.6666667   0.0000000  -0.8210110  )
         4           Cu  tau(   4) = (   0.1666667   0.2886751  -0.8210110  )
         5           Cu  tau(   5) = (   0.5000000   0.2886751  -0.8210110  )
         6           Cu  tau(   6) = (   0.8333333   0.2886751  -0.8210110  )
         7           Cu  tau(   7) = (   0.3333333   0.5773503  -0.8210110  )
         8           Cu  tau(   8) = (   0.6666667   0.5773503  -0.8210110  )
         9           Cu  tau(   9) = (   1.0000000   0.5773503  -0.8210110  )
        10           Cu  tau(  10) = (   0.1666667   0.0962250  -0.5488454  )
        11           Cu  tau(  11) = (   0.5000000   0.0962250  -0.5488454  )
        12           Cu  tau(  12) = (   0.8333333   0.0962250  -0.5488454  )
        13           Cu  tau(  13) = (   0.3333333   0.3849002  -0.5488454  )
        14           Cu  tau(  14) = (   0.6666667   0.3849002  -0.5488454  )
        15           Cu  tau(  15) = (   1.0000000   0.3849002  -0.5488454  )
        16           Cu  tau(  16) = (   0.5000000   0.6735753  -0.5488454  )
        17           Cu  tau(  17) = (   0.8333333   0.6735753  -0.5488454  )
        18           Cu  tau(  18) = (   1.1666667   0.6735753  -0.5488454  )
        19           Cu  tau(  19) = (   0.0000000   0.1924501  -0.2766799  )
        20           Cu  tau(  20) = (   0.3333333   0.1924501  -0.2766799  )
        21           Cu  tau(  21) = (   0.6666667   0.1924501  -0.2766799  )
        22           Cu  tau(  22) = (   0.1666667   0.4811252  -0.2766799  )
        23           Cu  tau(  23) = (   0.5000000   0.4811252  -0.2766799  )
        24           Cu  tau(  24) = (   0.8333333   0.4811252  -0.2766799  )
        25           Cu  tau(  25) = (   0.3333333   0.7698004  -0.2766799  )
        26           Cu  tau(  26) = (   0.6666667   0.7698004  -0.2766799  )
        27           Cu  tau(  27) = (   1.0000000   0.7698004  -0.2766799  )
        28           Cu  tau(  28) = (   0.0000000   0.0000000  -0.0045144  )
        29           Cu  tau(  29) = (   0.3333333   0.0000000  -0.0045144  )
        30           Cu  tau(  30) = (   0.6666667   0.0000000  -0.0045144  )
        31           Cu  tau(  31) = (   0.1666667   0.2886751  -0.0045144  )
        32           Cu  tau(  32) = (   0.5000000   0.2886751  -0.0045144  )
        33           Cu  tau(  33) = (   0.8333333   0.2886751  -0.0045144  )
        34           Cu  tau(  34) = (   0.3333333   0.5773503  -0.0045144  )
        35           Cu  tau(  35) = (   0.6666667   0.5773503  -0.0045144  )
        36           Cu  tau(  36) = (   1.0000000   0.5773503  -0.0045144  )
        37           C   tau(  37) = (   0.6666667   0.3849002   0.1002466  )
        38           O   tau(  38) = (   0.6666667   0.3849002   0.2470687  )

   Crystallographic axes

     site n.     atom                  positions (cryst. coord.)
         1           Cu  tau(   1) = (  0.0000000  0.0000000 -0.2983595  )
         2           Cu  tau(   2) = (  0.3333333  0.0000000 -0.2983595  )
         3           Cu  tau(   3) = (  0.6666667  0.0000000 -0.2983595  )
         4           Cu  tau(   4) = ( -0.0000000  0.3333333 -0.2983595  )
         5           Cu  tau(   5) = (  0.3333333  0.3333333 -0.2983595  )
         6           Cu  tau(   6) = (  0.6666667  0.3333333 -0.2983595  )
         7           Cu  tau(   7) = (  0.0000000  0.6666667 -0.2983595  )
         8           Cu  tau(   8) = (  0.3333333  0.6666667 -0.2983595  )
         9           Cu  tau(   9) = (  0.6666667  0.6666667 -0.2983595  )
        10           Cu  tau(  10) = (  0.1111111  0.1111111 -0.1994532  )
        11           Cu  tau(  11) = (  0.4444444  0.1111111 -0.1994532  )
        12           Cu  tau(  12) = (  0.7777778  0.1111111 -0.1994532  )
        13           Cu  tau(  13) = (  0.1111111  0.4444444 -0.1994532  )
        14           Cu  tau(  14) = (  0.4444444  0.4444444 -0.1994532  )
        15           Cu  tau(  15) = (  0.7777778  0.4444444 -0.1994532  )
        16           Cu  tau(  16) = (  0.1111111  0.7777778 -0.1994532  )
[...]
     The SCF correction term to forces
     atom    1 type  1   force =     0.00000000    0.00000000    0.00000000
     atom    2 type  1   force =     0.00000000    0.00000000    0.00000000
     atom    3 type  1   force =     0.00000000    0.00000000    0.00000000
     atom    4 type  1   force =     0.00000000    0.00000000    0.00000000
     atom    5 type  1   force =     0.00000000    0.00000000    0.00000000
     atom    6 type  1   force =     0.00000000    0.00000000    0.00000000
     atom    7 type  1   force =     0.00000000    0.00000000    0.00000000
     atom    8 type  1   force =     0.00000000    0.00000000    0.00000000
     atom    9 type  1   force =     0.00000000    0.00000000    0.00000000
     atom   10 type  1   force =    -0.00000000   -0.00000000    0.00000027
     atom   11 type  1   force =     0.00000007    0.00000022   -0.00000011
     atom   12 type  1   force =    -0.00000007    0.00000022   -0.00000011
     atom   13 type  1   force =     0.00000022   -0.00000005   -0.00000011
     atom   14 type  1   force =     0.00000000   -0.00000000   -0.00000026
     atom   15 type  1   force =    -0.00000022   -0.00000005   -0.00000011
     atom   16 type  1   force =     0.00000015   -0.00000017   -0.00000011
     atom   17 type  1   force =    -0.00000015   -0.00000017   -0.00000011
     atom   18 type  1   force =     0.00000000   -0.00000000    0.00000048
     atom   19 type  1   force =    -0.00000040    0.00000023    0.00000015
     atom   20 type  1   force =     0.00000040    0.00000023    0.00000015
     atom   21 type  1   force =    -0.00000000    0.00000032   -0.00000064
     atom   22 type  1   force =    -0.00000000   -0.00000001   -0.00000005
     atom   23 type  1   force =     0.00000028   -0.00000016   -0.00000064
     atom   24 type  1   force =    -0.00000028   -0.00000016   -0.00000064
     atom   25 type  1   force =     0.00000001    0.00000001   -0.00000005
     atom   26 type  1   force =    -0.00000000   -0.00000047    0.00000015
     atom   27 type  1   force =    -0.00000001    0.00000001   -0.00000005
     atom   28 type  1   force =    -0.00000008   -0.00000005   -0.00000010
     atom   29 type  1   force =     0.00000008   -0.00000005   -0.00000010
     atom   30 type  1   force =    -0.00000000    0.00000015    0.00000065
     atom   31 type  1   force =    -0.00000000    0.00000009   -0.00000010
     atom   32 type  1   force =    -0.00000091   -0.00000053   -0.00000001
     atom   33 type  1   force =     0.00000091   -0.00000053   -0.00000001
     atom   34 type  1   force =     0.00000013   -0.00000007    0.00000065
     atom   35 type  1   force =     0.00000000    0.00000106   -0.00000001
     atom   36 type  1   force =    -0.00000013   -0.00000007    0.00000065
     atom   37 type  2   force =     0.00000000   -0.00000000    0.00000020
     atom   38 type  3   force =     0.00000000    0.00000000    0.00000006

     Total force =     0.002860     Total SCF correction =     0.000003
     Energy error            =      2.3E-05 Ry
     Gradient error          =      1.1E-03 Ry/Bohr

     number of scf cycles    =  20
     number of bfgs steps    =  19

     energy             old  =   -7900.8569950628 Ry
     energy             new  =   -7900.8570184736 Ry

     CASE: energy            _new < energy            _old

     new trust radius        =       0.0058680697 bohr
     new conv_thr            =            2.1E-13 Ry

ATOMIC_POSITIONS (angstrom)
Cu            0.0000000000        0.0000000000       -6.3635888363    0   0   0
Cu            2.5836394002       -0.0000000000       -6.3635888363    0   0   0
Cu            5.1672788003        0.0000000000       -6.3635888363    0   0   0
Cu            1.2918197001        2.2374973548       -6.3635888363    0   0   0
Cu            3.8754591003        2.2374973548       -6.3635888363    0   0   0
Cu            6.4590985004        2.2374973548       -6.3635888363    0   0   0
Cu            2.5836394002        4.4749947095       -6.3635888363    0   0   0
Cu            5.1672788003        4.4749947095       -6.3635888363    0   0   0
Cu            7.7509182005        4.4749947095       -6.3635888363    0   0   0
Cu            1.2918197001        0.7458324516       -4.2551080268
Cu            3.8733825031        0.7456628909       -4.2842323973
Cu            6.4611750976        0.7456628909       -4.2842323973
Cu            2.5824542578        2.9816162008       -4.2842323973
Cu            5.1672788003        2.9833298064       -4.2860712479
Cu            7.7521033429        2.9816162008       -4.2842323973
Cu            3.8763505550        5.2227103273       -4.2842323973
Cu            6.4582070457        5.2227103273       -4.2842323973
Cu            9.0427379006        5.2208271611       -4.2838527853
Cu           -0.0143004700        1.4999212834       -2.1814402150
Cu            2.5979398702        1.4999212834       -2.1814402150
Cu            5.1672788003        1.4971684396       -2.2053165885
Cu            1.2918197001        3.7270491928       -2.2059302438
Cu            3.8802253027        3.7264104897       -2.2053165885
Cu            6.4543322980        3.7264104897       -2.2053165885
Cu            2.5854693682        5.9677161452       -2.2059302438
Cu            5.1672788003        5.9501468523       -2.1814402150
Cu            7.7490882325        5.9677161452       -2.2059302438
Cu           -0.0014466597       -0.0008352294       -0.1116757828
Cu            2.5850860599       -0.0008352294       -0.1116757828
Cu            5.1672788003       -0.0176279094       -0.1347133966
Cu            1.2918197001        2.2391678136       -0.1116757828
Cu            3.8646858526        2.2312774173       -0.0584689593
Cu            6.4698717481        2.2312774173       -0.0584689593
Cu            2.5683731828        4.4838086642       -0.1347133966
Cu            5.1672788003        4.4874345845       -0.0584689593
Cu            7.7661844179        4.4838086642       -0.1347133966
C             5.1672788003        2.9833298064        1.3585430895
O             5.1672788003        2.9833298064        2.5349113161

     Writing config-only to output data dir tmp/Cu-1200-7.750918200505966.save/
     NEW-OLD atomic charge density approx. for the potential

[...]

     Self-consistent Calculation

[...]

     c_bands:  1 eigenvalues not converged
     ethr =  1.00E-13,  avg # of iterations =  3.4

[...]

     ethr =  1.00E-13,  avg # of iterations =  3.2

     negative rho (up, down):  2.409E-04 0.000E+00

     Non-local corr. energy    =      22.29753766 Ry

     total energy              =   -7900.85704776 Ry
     estimated scf accuracy    <          5.9E-12 Ry

     iteration #151     ecut=    88.20 Ry     beta= 0.33
     CG style diagonalization

     max_seconds     =   86000.00
     Calculation stopped in k-point loop, point #     5
     Calculation stopped in scf loop at iteration #   150

     Writing config to output data dir tmp/Cu-1200-7.750918200505966.save/

     General routines

     Parallel routines

     PAW routines

   This run was terminated on:  18:49: 8  13Jul2024

   JOB DONE.
255
255
255
255
255
255
255
255
255
255
255
255
255
255
255
255
255
255
255
255
255
255
255
255
255
255
255
255
255
255
255
255
255
255
255
255
255
255
255
255
255
255
255
255
255
255
255
255
255
255
255
255
255
255
255
255
255
255
255
255
[...]
255
255
255
255
255
255
255
255
255
255
255
255
255
255
255
srun: error: c21u09n4: tasks 32-63: Exited with exit code 255
srun: launch/slurm: _step_signal: Terminating StepId=2074051.0
slurmstepd: error: *** STEP 2074051.0 ON c21u09n3 CANCELLED AT 2024-07-13T18:49:08 ***
srun: error: c21u10n2: tasks 96-127: Exited with exit code 255
srun: error: c21u10n3: tasks 128-159: Exited with exit code 255
srun: error: c21u10n1: tasks 64-95: Exited with exit code 255
srun: error: c21u10n4: tasks 160-191: Exited with exit code 255
forrtl: error (78): process killed (SIGTERM)
Image              PC                Routine            Line        Source
libpthread-2.28.s  0000148E2FE35CE0  Unknown               Unknown  Unknown
libmlx-fi.so       0000148DAC132E20  Unknown               Unknown  Unknown
forrtl: error (78): process killed (SIGTERM)
Image              PC                Routine            Line        Source
libpthread-2.28.s  000014E11785ACE0  Unknown               Unknown  Unknown
libmlx-fi.so       000014E093B57E20  Unknown               Unknown  Unknown
forrtl: error (78): process killed (SIGTERM)
Image              PC                Routine            Line        Source
libpthread-2.28.s  0000155101E67CE0  Unknown               Unknown  Unknown
libmlx-fi.so       000015507E164E20  Unknown               Unknown  Unknown
forrtl: error (78): process killed (SIGTERM)
Image              PC                Routine            Line        Source
libpthread-2.28.s  0000148DA1CB0CE0  Unknown               Unknown  Unknown
libmlx-fi.so       0000148D1DFADE20  Unknown               Unknown  Unknown
forrtl: error (78): process killed (SIGTERM)
Image              PC                Routine            Line        Source
libpthread-2.28.s  0000152E0EBA4CE0  Unknown               Unknown  Unknown
libmlx-fi.so       0000152D8AEA1E20  Unknown               Unknown  Unknown
forrtl: error (78): process killed (SIGTERM)
Image              PC                Routine            Line        Source
libpthread-2.28.s  000014F3C75CFCE0  Unknown               Unknown  Unknown
libmlx-fi.so       000014F3438CCE20  Unknown               Unknown  Unknown
forrtl: error (78): process killed (SIGTERM)
Image              PC                Routine            Line        Source
libpthread-2.28.s  0000145C8E193CE0  Unknown               Unknown  Unknown
libmlx-fi.so       0000145C0A490E20  Unknown               Unknown  Unknown
forrtl: error (78): process killed (SIGTERM)
Image              PC                Routine            Line        Source
libpthread-2.28.s  000014CA6E91CCE0  Unknown               Unknown  Unknown
libmlx-fi.so       000014C9EAC19E20  Unknown               Unknown  Unknown
forrtl: error (78): process killed (SIGTERM)
Image              PC                Routine            Line        Source
libpthread-2.28.s  0000148BF84A0CE0  Unknown               Unknown  Unknown
libmlx-fi.so       0000148B7479DE20  Unknown               Unknown  Unknown
forrtl: error (78): process killed (SIGTERM)
Image              PC                Routine            Line        Source
libpthread-2.28.s  000015163DF82CE0  Unknown               Unknown  Unknown
libmlx-fi.so       00001515BA27FE20  Unknown               Unknown  Unknown
forrtl: error (78): process killed (SIGTERM)
Image              PC                Routine            Line        Source
libpthread-2.28.s  0000147523F77CE0  Unknown               Unknown  Unknown
libmlx-fi.so       00001474A0274E20  Unknown               Unknown  Unknown
forrtl: error (78): process killed (SIGTERM)
Image              PC                Routine            Line        Source
libpthread-2.28.s  0000153477496CE0  Unknown               Unknown  Unknown
libmlx-fi.so       00001533F3793E20  Unknown               Unknown  Unknown
forrtl: error (78): process killed (SIGTERM)
Image              PC                Routine            Line        Source
libpthread-2.28.s  0000147384DD4CE0  Unknown               Unknown  Unknown
libmlx-fi.so       00001473010D1E20  Unknown               Unknown  Unknown
forrtl: error (78): process killed (SIGTERM)
Image              PC                Routine            Line        Source
libpthread-2.28.s  000014CDE3146CE0  Unknown               Unknown  Unknown
libmlx-fi.so       000014CD5F443E20  Unknown               Unknown  Unknown
forrtl: error (78): process killed (SIGTERM)
Image              PC                Routine            Line        Source
libpthread-2.28.s  000014B3E3730CE0  Unknown               Unknown  Unknown
libmlx-fi.so       000014B35FA2DE20  Unknown               Unknown  Unknown
forrtl: error (78): process killed (SIGTERM)
Image              PC                Routine            Line        Source
libpthread-2.28.s  000014A6A6B16CE0  Unknown               Unknown  Unknown
libmlx-fi.so       000014A622E13E20  Unknown               Unknown  Unknown
forrtl: error (78): process killed (SIGTERM)
Image              PC                Routine            Line        Source
libpthread-2.28.s  000014D113619CE0  Unknown               Unknown  Unknown
libmlx-fi.so       000014D08F916E20  Unknown               Unknown  Unknown
forrtl: error (78): process killed (SIGTERM)
Image              PC                Routine            Line        Source
libpthread-2.28.s  00001506C5956CE0  Unknown               Unknown  Unknown
libmlx-fi.so       0000150641C53E20  Unknown               Unknown  Unknown
forrtl: error (78): process killed (SIGTERM)
Image              PC                Routine            Line        Source
libpthread-2.28.s  000014CCC4890CE0  Unknown               Unknown  Unknown
libmlx-fi.so       000014CC40B8DE20  Unknown               Unknown  Unknown
forrtl: error (78): process killed (SIGTERM)
Image              PC                Routine            Line        Source
libpthread-2.28.s  00001508E73D6CE0  Unknown               Unknown  Unknown
libmlx-fi.so       00001508636D3E20  Unknown               Unknown  Unknown
forrtl: error (78): process killed (SIGTERM)
Image              PC                Routine            Line        Source
libpthread-2.28.s  000014CCD3916CE0  Unknown               Unknown  Unknown
libmlx-fi.so       000014CC4FC13E20  Unknown               Unknown  Unknown
forrtl: error (78): process killed (SIGTERM)
Image              PC                Routine            Line        Source
libpthread-2.28.s  000014B542B25CE0  Unknown               Unknown  Unknown
libmlx-fi.so       000014B4BEE22E20  Unknown               Unknown  Unknown
forrtl: error (78): process killed (SIGTERM)
Image              PC                Routine            Line        Source
libpthread-2.28.s  000014C1A373FCE0  Unknown               Unknown  Unknown
libmlx-fi.so       000014C11FA3CE20  Unknown               Unknown  Unknown
forrtl: error (78): process killed (SIGTERM)
Image              PC                Routine            Line        Source
libpthread-2.28.s  000014C51FD7FCE0  Unknown               Unknown  Unknown
libmlx-fi.so       000014C49C07CE20  Unknown               Unknown  Unknown
forrtl: error (78): process killed (SIGTERM)
Image              PC                Routine            Line        Source
libpthread-2.28.s  000014829C4A7CE0  Unknown               Unknown  Unknown
libmlx-fi.so       00001482187A4E20  Unknown               Unknown  Unknown
forrtl: error (78): process killed (SIGTERM)
Image              PC                Routine            Line        Source
libpthread-2.28.s  000014ADC353CCE0  Unknown               Unknown  Unknown
libmlx-fi.so       000014AD3F839E20  Unknown               Unknown  Unknown
forrtl: error (78): process killed (SIGTERM)
Image              PC                Routine            Line        Source
libpthread-2.28.s  0000150227C95CE0  Unknown               Unknown  Unknown
libmlx-fi.so       00001501A3F92E20  Unknown               Unknown  Unknown
forrtl: error (78): process killed (SIGTERM)
Image              PC                Routine            Line        Source
libpthread-2.28.s  000014A9F6519CE0  Unknown               Unknown  Unknown
libmlx-fi.so       000014A972816E20  Unknown               Unknown  Unknown
forrtl: error (78): process killed (SIGTERM)
Image              PC                Routine            Line        Source
libpthread-2.28.s  0000148A2A27DCE0  Unknown               Unknown  Unknown
libmlx-fi.so       00001489A657AE20  Unknown               Unknown  Unknown
forrtl: error (78): process killed (SIGTERM)
Image              PC                Routine            Line        Source
libpthread-2.28.s  00001514A7167CE0  Unknown               Unknown  Unknown
libmlx-fi.so       0000151423464E20  Unknown               Unknown  Unknown
forrtl: error (78): process killed (SIGTERM)
Image              PC                Routine            Line        Source
libpthread-2.28.s  000014998C245CE0  Unknown               Unknown  Unknown
libmlx-fi.so       0000149908542E20  Unknown               Unknown  Unknown
forrtl: error (78): process killed (SIGTERM)
Image              PC                Routine            Line        Source
libpthread-2.28.s  0000148DCA718CE0  Unknown               Unknown  Unknown
libmlx-fi.so       0000148D46A15E20  Unknown               Unknown  Unknown
srun: error: c21u09n3: tasks 0-31: Exited with exit code 1
========= Job finished at Sat Jul 13 18:49:15 JST 2024 ==========