     Program PWSCF v.7.2 starts on  6Jul2024 at  2:45:36

     Reading input from Cu-vib.pwi
Warning: card &CELL ignored
Warning: card / ignored

     Current dimensions of program PWSCF are:
     Max number of different atomic species (ntypx) = 10
     Max number of k-points (npk) =  40000
     Max angular momentum in pseudopotentials (lmaxx) =  4
     file Cu.pbe-dn-kjpaw_psl.1.0.0.UPF: wavefunction(s)  4S 3D renormalized
     file C.pbe-n-kjpaw_psl.1.0.0.UPF: wavefunction(s)  2S 2P renormalized
     file O.pbe-n-kjpaw_psl.1.0.0.UPF: wavefunction(s)  2S 2P renormalized

     IMPORTANT: XC functional enforced from input :
     Exchange-correlation= BEEF-VDW
                           (   1   4  43  14   2   0   0)
     Any further DFT definition will be discarded
     Please, verify this is what you really want

     K-points division:     npool     =       2
     band groups division:  nbgrp     =      24
     R & G space division:  proc/nbgrp/npool/nimage =       4
     wavefunctions fft division:  Y-proc x Z-proc =       4      1
     wavefunctions fft division:  task group distribution
                                  #TG    x Z-proc =       4      1
     Subspace diagonalization in iterative solution of the eigenvalue problem:
     a serial algorithm will be used

     Using Pencil Decomposition

     Title:
     Cu-vib

     bravais-lattice index     =            0
     lattice parameter (alat)  =      14.6292  a.u.
     unit-cell volume          =    7467.4559 (a.u.)^3
     number of atoms/cell      =           38
     number of atomic types    =            3
     number of electrons       =       406.00
     number of Kohn-Sham states=          244
     kinetic-energy cutoff     =      62.4738  Ry
     charge density cutoff     =     624.7385  Ry
     scf convergence threshold =      7.3E-12
     mixing beta               =       0.3333
     number of iterations used =           12  plain     mixing
     Exchange-correlation= BEEF-VDW
                           (   1   4  43  14   2   0   0)

     Effective Screening Medium Method
     Boundary Conditions: Vacuum-Slab-Metal
     total charge in unit cell        =   0.0000
     grid points for fit at edges     =        4

     celldm(1)=  14.629163  celldm(2)=   0.000000  celldm(3)=   0.000000
     celldm(4)=   0.000000  celldm(5)=   0.000000  celldm(6)=   0.000000

     crystal axes: (cart. coord. in units of alat)
               a(1) = (   1.000000   0.000000   0.000000 )
               a(2) = (   0.500000   0.866025   0.000000 )
               a(3) = (   0.000000   0.000000   2.754126 )

     reciprocal axes: (cart. coord. in units 2 pi/alat)
               b(1) = (  1.000000 -0.577351  0.000000 )
               b(2) = (  0.000000  1.154701  0.000000 )
               b(3) = (  0.000000  0.000000  0.363092 )

     PseudoPot. # 1 for Cu read from file:
     /home/k0227/k022716/QE/pseudo/Cu.pbe-dn-kjpaw_psl.1.0.0.UPF
     MD5 check sum: 67c40f9e1593dc2d139023e70404cc2a
     Pseudo is Projector augmented-wave + core cor, Zval = 11.0
     Generated using "atomic" code by A. Dal Corso  v.6.1 svn rev. 13369
     Shape of augmentation charge: PSQ
     Using radial grid of 1199 points,  6 beta functions with:
                l(1) =   0
                l(2) =   0
                l(3) =   1
                l(4) =   1
                l(5) =   2
                l(6) =   2
     Q(r) pseudized with 0 coefficients

     PseudoPot. # 2 for C  read from file:
     /home/k0227/k022716/QE/pseudo/C.pbe-n-kjpaw_psl.1.0.0.UPF
     MD5 check sum: 92a742b3ac0ce1af44b5aa3f9352ca21
     Pseudo is Projector augmented-wave + core cor, Zval =  4.0
     Generated using "atomic" code by A. Dal Corso  v.6.1 svn rev. 13369
     Shape of augmentation charge: PSQ
     Using radial grid of 1073 points,  4 beta functions with:
                l(1) =   0
                l(2) =   0
                l(3) =   1
                l(4) =   1
     Q(r) pseudized with 0 coefficients

     PseudoPot. # 3 for O  read from file:
     /home/k0227/k022716/QE/pseudo/O.pbe-n-kjpaw_psl.1.0.0.UPF
     MD5 check sum: c61d840054b6bba219e553541e327118
     Pseudo is Projector augmented-wave + core cor, Zval =  6.0
     Generated using "atomic" code by A. Dal Corso  v.6.1 svn rev. 13369
     Shape of augmentation charge: PSQ
     Using radial grid of 1095 points,  4 beta functions with:
                l(1) =   0
                l(2) =   0
                l(3) =   1
                l(4) =   1
     Q(r) pseudized with 0 coefficients

     atomic species   valence    mass     pseudopotential
        Cu            11.00    63.54600     Cu( 1.00)
        C              4.00    12.01100     C ( 1.00)
        O              6.00    15.99900     O ( 1.00)

     No symmetry found

                                    s                        frac. trans.

      isym =  1     identity

 cryst.   s( 1) = (     1          0          0      )
                  (     0          1          0      )
                  (     0          0          1      )

 cart.    s( 1) = (  1.0000000  0.0000000  0.0000000 )
                  (  0.0000000  1.0000000  0.0000000 )
                  (  0.0000000  0.0000000  1.0000000 )

   Cartesian axes

     site n.     atom                  positions (alat units)
         1           Cu  tau(   1) = (   0.0000000   0.0000000  -0.8213671  )
         2           Cu  tau(   2) = (   0.3333333   0.0000000  -0.8213671  )
         3           Cu  tau(   3) = (   0.6666666   0.0000000  -0.8213671  )
         4           Cu  tau(   4) = (   0.1666667   0.2886751  -0.8213671  )
         5           Cu  tau(   5) = (   0.5000000   0.2886751  -0.8213671  )
         6           Cu  tau(   6) = (   0.8333333   0.2886751  -0.8213671  )
         7           Cu  tau(   7) = (   0.3333333   0.5773503  -0.8213671  )
         8           Cu  tau(   8) = (   0.6666666   0.5773503  -0.8213671  )
         9           Cu  tau(   9) = (   1.0000000   0.5773503  -0.8213671  )
        10           Cu  tau(  10) = (   0.1676726   0.0968058  -0.5514407  )
        11           Cu  tau(  11) = (   0.5000000   0.0962354  -0.5516369  )
        12           Cu  tau(  12) = (   0.8323274   0.0968058  -0.5514407  )
        13           Cu  tau(  13) = (   0.3333423   0.3848950  -0.5516369  )
        14           Cu  tau(  14) = (   0.6666577   0.3848950  -0.5516369  )
        15           Cu  tau(  15) = (   1.0000000   0.3850123  -0.5516296  )
        16           Cu  tau(  16) = (   0.5000000   0.6724138  -0.5514407  )
        17           Cu  tau(  17) = (   0.8334305   0.6735192  -0.5516296  )
        18           Cu  tau(  18) = (   1.1665695   0.6735192  -0.5516296  )
        19           Cu  tau(  19) = (   0.0000000   0.1920199  -0.2839468  )
        20           Cu  tau(  20) = (   0.3352761   0.1935717  -0.2785153  )
        21           Cu  tau(  21) = (   0.6647239   0.1935717  -0.2785153  )
        22           Cu  tau(  22) = (   0.1667971   0.4810499  -0.2820853  )
        23           Cu  tau(  23) = (   0.5000000   0.4788819  -0.2785153  )
        24           Cu  tau(  24) = (   0.8332029   0.4810499  -0.2820853  )
        25           Cu  tau(  25) = (   0.3337059   0.7700154  -0.2839468  )
        26           Cu  tau(  26) = (   0.6662941   0.7700154  -0.2839468  )
        27           Cu  tau(  27) = (   1.0000000   0.7699510  -0.2820853  )
        28           Cu  tau(  28) = (   0.0000000   0.0000000  -0.0128738  )
        29           Cu  tau(  29) = (   0.3320846  -0.0026680  -0.0142138  )
        30           Cu  tau(  30) = (   0.6679153  -0.0026680  -0.0142138  )
        31           Cu  tau(  31) = (   0.1637317   0.2889277  -0.0142138  )
        32           Cu  tau(  32) = (   0.5000000   0.2886751   0.0020453  )
        33           Cu  tau(  33) = (   0.8362682   0.2889277  -0.0142138  )
        34           Cu  tau(  34) = (   0.3316471   0.5797657  -0.0142138  )
        35           Cu  tau(  35) = (   0.6683529   0.5797657  -0.0142138  )
        36           Cu  tau(  36) = (   1.0000000   0.5773503  -0.0124640  )
        37           C   tau(  37) = (   0.5000000   0.2886751   0.2446598  )
        38           O   tau(  38) = (   0.5000000   0.2886751   0.3932622  )

   Crystallographic axes

     site n.     atom                  positions (cryst. coord.)
         1           Cu  tau(   1) = (  0.0000000  0.0000000 -0.2982315  )
         2           Cu  tau(   2) = (  0.3333333  0.0000000 -0.2982315  )
         3           Cu  tau(   3) = (  0.6666666  0.0000000 -0.2982315  )
         4           Cu  tau(   4) = ( -0.0000001  0.3333335 -0.2982315  )
         5           Cu  tau(   5) = (  0.3333332  0.3333335 -0.2982315  )
         6           Cu  tau(   6) = (  0.6666666  0.3333335 -0.2982315  )
         7           Cu  tau(   7) = ( -0.0000002  0.6666670 -0.2982315  )
         8           Cu  tau(   8) = (  0.3333332  0.6666670 -0.2982315  )
         9           Cu  tau(   9) = (  0.6666665  0.6666670 -0.2982315  )
        10           Cu  tau(  10) = (  0.1117817  0.1117818 -0.2002235  )
        11           Cu  tau(  11) = (  0.4444384  0.1111231 -0.2002947  )
        12           Cu  tau(  12) = (  0.7764365  0.1117818 -0.2002235  )
        13           Cu  tau(  13) = (  0.1111230  0.4444386 -0.2002947  )
        14           Cu  tau(  14) = (  0.4444383  0.4444386 -0.2002947  )
        15           Cu  tau(  15) = (  0.7777129  0.4445742 -0.2002921  )
        16           Cu  tau(  16) = (  0.1117815  0.7764369 -0.2002235  )
        17           Cu  tau(  17) = (  0.4445738  0.7777134 -0.2002921  )
        18           Cu  tau(  18) = (  0.7777128  0.7777134 -0.2002921  )
        19           Cu  tau(  19) = ( -0.1108628  0.2217256 -0.1030987  )
        20           Cu  tau(  20) = (  0.2235173  0.2235175 -0.1011266  )
        21           Cu  tau(  21) = (  0.5529652  0.2235175 -0.1011266  )
        22           Cu  tau(  22) = ( -0.1109373  0.5554688 -0.1024228  )
        23           Cu  tau(  23) = (  0.2235172  0.5529655 -0.1011266  )
        24           Cu  tau(  24) = (  0.5554684  0.5554688 -0.1024228  )
        25           Cu  tau(  25) = ( -0.1108629  0.8891376 -0.1030987  )
        26           Cu  tau(  26) = (  0.2217253  0.8891376 -0.1030987  )
        27           Cu  tau(  27) = (  0.5554684  0.8890632 -0.1024228  )
        28           Cu  tau(  28) = (  0.0000000  0.0000000 -0.0046744  )
        29           Cu  tau(  29) = (  0.3336250 -0.0030808 -0.0051609  )
        30           Cu  tau(  30) = (  0.6694557 -0.0030808 -0.0051609  )
        31           Cu  tau(  31) = ( -0.0030808  0.3336252 -0.0051609  )
        32           Cu  tau(  32) = (  0.3333332  0.3333335  0.0007426  )
        33           Cu  tau(  33) = (  0.6694556  0.3336252 -0.0051609  )
        34           Cu  tau(  34) = ( -0.0030809  0.6694560 -0.0051609  )
        35           Cu  tau(  35) = (  0.3336249  0.6694560 -0.0051609  )
        36           Cu  tau(  36) = (  0.6666665  0.6666670 -0.0045256  )
        37           C   tau(  37) = (  0.3333332  0.3333335  0.0888339  )
        38           O   tau(  38) = (  0.3333332  0.3333335  0.1427902  )

[...]
     atom   15 type  1   force =     0.00000015    0.00104688   -0.01720465
     atom   16 type  1   force =     0.00002193    0.00598074   -0.02428080
     atom   17 type  1   force =     0.00088679   -0.00054307   -0.01718962
     atom   18 type  1   force =    -0.00090632   -0.00055227   -0.01718536
     atom   19 type  1   force =     0.00004595    0.00435042    0.02697664
     atom   20 type  1   force =    -0.01508558   -0.00867205    0.00502136
     atom   21 type  1   force =     0.01503407   -0.00880848    0.00485853
     atom   22 type  1   force =     0.00666297   -0.00383789    0.03021832
     atom   23 type  1   force =    -0.00011494    0.01735328    0.00494317
     atom   24 type  1   force =    -0.00655688   -0.00394675    0.03059018
     atom   25 type  1   force =    -0.00384582   -0.00208921    0.02727267
     atom   26 type  1   force =     0.00381178   -0.00208271    0.02712560
     atom   27 type  1   force =     0.00003833    0.00769638    0.03026218
     atom   28 type  1   force =     0.00069801   -0.00112970    0.11563045
     atom   29 type  1   force =     0.01398569    0.02204171    0.14670555
     atom   30 type  1   force =    -0.01468611    0.02059805    0.14621795
     atom   31 type  1   force =     0.02579732    0.00146151    0.14668062
     atom   32 type  1   force =    -0.00002568    0.00008986    0.01631949
     atom   33 type  1   force =    -0.02573868    0.00485675    0.14673237
     atom   34 type  1   force =     0.01179956   -0.02264173    0.14670974
     atom   35 type  1   force =    -0.01106772   -0.02408081    0.14722705
     atom   36 type  1   force =    -0.00072193   -0.00115268    0.12159994
     atom   37 type  2   force =     0.00001180   -0.00006308    0.79767089
     atom   38 type  3   force =     0.00000390   -0.00003026   -2.76099787
     The ionic contribution  to forces
     atom    1 type  1   force =     0.00028145   -0.00012197   74.57842094
     atom    2 type  1   force =    -0.03532300   -0.00390534   74.43255760
     atom    3 type  1   force =     0.03504115   -0.00376539   74.43199613
     atom    4 type  1   force =    -0.02081773   -0.02844096   74.43258376
     atom    5 type  1   force =     0.00000028    0.00032707   74.43712600
     atom    6 type  1   force =     0.02081731   -0.02809165   74.43258392
     atom    7 type  1   force =     0.01450562    0.03204764   74.43257863
     atom    8 type  1   force =    -0.01422362    0.03218702   74.43313991
     atom    9 type  1   force =    -0.00028173   -0.00022592   74.40717601
     atom   10 type  1   force =    -0.05917560   -0.03505383  221.53814281
     atom   11 type  1   force =    -0.00158178    0.08715731  221.58386099
     atom   12 type  1   force =     0.06073516   -0.03365248  221.53428394
     atom   13 type  1   force =     0.07545523   -0.04281645  221.58633490
     atom   14 type  1   force =    -0.07438285   -0.04038885  221.58849628
     atom   15 type  1   force =    -0.00107416   -0.03658603  221.40186506
     atom   16 type  1   force =     0.00205438    0.06729666  221.53965896
     atom   17 type  1   force =    -0.03444693    0.01702647  221.40261841
     atom   18 type  1   force =     0.03239276    0.01701855  221.39868788
     atom   19 type  1   force =     0.01765515   -0.03609979  367.99017530
     atom   20 type  1   force =    -0.15196675   -0.08423161  370.65287859
     atom   21 type  1   force =     0.13357604   -0.06375119  370.62735511
     atom   22 type  1   force =    -0.06694772    0.03114893  368.92128853
     atom   23 type  1   force =     0.01125858    0.17474522  370.66255062
     atom   24 type  1   force =     0.05617494    0.02428790  368.96919079
     atom   25 type  1   force =     0.05141851    0.00967192  368.00278858
     atom   26 type  1   force =    -0.04120762    0.01527559  368.01913765
     atom   27 type  1   force =    -0.01027529   -0.07877936  368.91441472
     atom   28 type  1   force =     0.05364269   -0.06146532  517.01028823
     atom   29 type  1   force =    -0.66097430   -0.92640638  515.76453786
     atom   30 type  1   force =     0.60946550   -0.96796125  515.76453650
     atom   31 type  1   force =    -1.11842463   -0.08402203  515.76451813
     atom   32 type  1   force =     0.00012839    0.03111367  515.14972828
     atom   33 type  1   force =     1.11850879    0.09142168  515.76479406
     atom   34 type  1   force =    -0.45727252    1.01018484  515.76451497
     atom   35 type  1   force =     0.50851098    0.96862059  515.76451540
     atom   36 type  1   force =    -0.05326680   -0.06136755  517.80034699
     atom   37 type  2   force =     0.00001386    0.00476515  208.27196007
     atom   38 type  3   force =     0.00000627    0.00283715  336.98677986
     The local contribution  to forces
     atom    1 type  1   force =    -0.00030796    0.00010768  -74.46327882
     atom    2 type  1   force =     0.03586614    0.01117345  -74.32539845
     atom    3 type  1   force =    -0.03556060    0.01101204  -74.32484198
     atom    4 type  1   force =     0.02733805    0.02527695  -74.32545638
     atom    5 type  1   force =     0.00001703   -0.00036886  -74.31920039
     atom    6 type  1   force =    -0.02735238    0.02488736  -74.32543199
     atom    7 type  1   force =    -0.00850180   -0.03606901  -74.32545122
     atom    8 type  1   force =     0.00818313   -0.03625482  -74.32597454
     atom    9 type  1   force =     0.00032356    0.00021913  -74.29701196
     atom   10 type  1   force =     0.06395293    0.03781552 -221.51351101
     atom   11 type  1   force =     0.00160931   -0.08799557 -221.55111714
     atom   12 type  1   force =    -0.06553629    0.03638262 -221.50966081
     atom   13 type  1   force =    -0.07617127    0.04323203 -221.55359860
     atom   14 type  1   force =     0.07509207    0.04075817 -221.55572351
     atom   15 type  1   force =     0.00107556    0.03547532 -221.38477246
     atom   16 type  1   force =    -0.00207694   -0.07281362 -221.51499987
     atom   17 type  1   force =     0.03350703   -0.01645047 -221.38554546
     atom   18 type  1   force =    -0.03143212   -0.01643535 -221.38161530
     atom   19 type  1   force =    -0.01755321    0.03187333 -368.01786344
     atom   20 type  1   force =     0.16583390    0.09220039 -370.65852075
     atom   21 type  1   force =    -0.14754804    0.07184801 -370.63305560
     atom   22 type  1   force =     0.05998606   -0.02714225 -368.95258761
     atom   23 type  1   force =    -0.01113039   -0.19068491 -370.66809789
     atom   24 type  1   force =    -0.04932549   -0.02044091 -369.00042902
     atom   25 type  1   force =    -0.04768701   -0.00767104 -368.03057018
     atom   26 type  1   force =     0.03751868   -0.01327788 -368.04674066
     atom   27 type  1   force =     0.01022792    0.07073545 -368.94576525
     atom   28 type  1   force =    -0.05399048    0.06201774 -517.10870811
     atom   29 type  1   force =     0.64734055    0.90502556 -515.89410806
     atom   30 type  1   force =    -0.59542286    0.94757406 -515.89357736
     atom   31 type  1   force =     1.09339692    0.08256108 -515.89406265
     atom   32 type  1   force =    -0.00009983   -0.03117185 -515.18973608
     atom   33 type  1   force =    -1.09353730   -0.09394191 -515.89437041
     atom   34 type  1   force =     0.44589601   -0.98822639 -515.89408637
     atom   35 type  1   force =    -0.49758468   -0.94566477 -515.89464386
     atom   36 type  1   force =     0.05365410    0.06195898 -517.90436405
     atom   37 type  2   force =    -0.00002678   -0.00466536 -209.06579527
     atom   38 type  3   force =    -0.00000943   -0.00281776 -334.24388294
     The core correction contribution to forces
     atom    1 type  1   force =    -0.00000192   -0.00000161    0.01669968
     atom    2 type  1   force =    -0.00011542    0.00014390    0.01690787
     atom    3 type  1   force =     0.00011735    0.00013944    0.01690862
     atom    4 type  1   force =     0.00006239   -0.00017174    0.01690665
     atom    5 type  1   force =     0.00000058   -0.00000309    0.01632332
     atom    6 type  1   force =    -0.00006300   -0.00017065    0.01690643
     atom    7 type  1   force =     0.00017855    0.00003483    0.01690651
     atom    8 type  1   force =    -0.00018171    0.00003072    0.01690611
     atom    9 type  1   force =     0.00000277   -0.00000064    0.01694225
     atom   10 type  1   force =     0.00037820    0.00021914   -0.00038003
     atom   11 type  1   force =     0.00000165   -0.00040300   -0.00103852
     atom   12 type  1   force =    -0.00038022    0.00021990   -0.00038113
     atom   13 type  1   force =    -0.00034882    0.00020066   -0.00103879
     atom   14 type  1   force =     0.00034671    0.00020001   -0.00103786
     atom   15 type  1   force =     0.00000164    0.00007962    0.00012360
     atom   16 type  1   force =    -0.00000185   -0.00043579   -0.00038054
     atom   17 type  1   force =     0.00007129   -0.00003809    0.00012025
     atom   18 type  1   force =    -0.00006883   -0.00003907    0.00012395
     atom   19 type  1   force =    -0.00002815   -0.00015310    0.00053333
     atom   20 type  1   force =     0.00121876    0.00070451    0.00063049
     atom   21 type  1   force =    -0.00119042    0.00070093    0.00067716
     atom   22 type  1   force =     0.00027116   -0.00015876    0.00112151
     atom   23 type  1   force =     0.00000500   -0.00140640    0.00063568
     atom   24 type  1   force =    -0.00027742   -0.00011237    0.00103460
     atom   25 type  1   force =     0.00013281    0.00006651    0.00048470
     atom   26 type  1   force =    -0.00013061    0.00007120    0.00049319
     atom   27 type  1   force =    -0.00000220    0.00031391    0.00112469
     atom   28 type  1   force =    -0.00006336    0.00009988   -0.01719126
     atom   29 type  1   force =    -0.00034438   -0.00068471   -0.01714418
     atom   30 type  1   force =     0.00040174   -0.00058859   -0.01713650
     atom   31 type  1   force =    -0.00075684    0.00001809   -0.01714338
     atom   32 type  1   force =    -0.00000144   -0.00002022    0.02369605
     atom   33 type  1   force =     0.00075290   -0.00029691   -0.01714669
     atom   34 type  1   force =    -0.00041291    0.00062881   -0.01714372
     atom   35 type  1   force =     0.00035105    0.00072236   -0.01715140
     atom   36 type  1   force =     0.00006733    0.00009578   -0.01765958
     atom   37 type  2   force =    -0.00000034    0.00000137   -0.00380081
     atom   38 type  3   force =    -0.00000011    0.00000045    0.01804018
     The Hubbard contrib.    to forces
     atom    1 type  1   force =     0.00000000    0.00000000    0.00000000
     atom    2 type  1   force =     0.00000000    0.00000000    0.00000000
     atom    3 type  1   force =     0.00000000    0.00000000    0.00000000
     atom    4 type  1   force =     0.00000000    0.00000000    0.00000000
     atom    5 type  1   force =     0.00000000    0.00000000    0.00000000
     atom    6 type  1   force =     0.00000000    0.00000000    0.00000000
     atom    7 type  1   force =     0.00000000    0.00000000    0.00000000
     atom    8 type  1   force =     0.00000000    0.00000000    0.00000000
     atom    9 type  1   force =     0.00000000    0.00000000    0.00000000
     atom   10 type  1   force =     0.00000000    0.00000000    0.00000000
     atom   11 type  1   force =     0.00000000    0.00000000    0.00000000
     atom   12 type  1   force =     0.00000000    0.00000000    0.00000000
     atom   13 type  1   force =     0.00000000    0.00000000    0.00000000
     atom   14 type  1   force =     0.00000000    0.00000000    0.00000000
     atom   15 type  1   force =     0.00000000    0.00000000    0.00000000
     atom   16 type  1   force =     0.00000000    0.00000000    0.00000000
     atom   17 type  1   force =     0.00000000    0.00000000    0.00000000
     atom   18 type  1   force =     0.00000000    0.00000000    0.00000000
     atom   19 type  1   force =     0.00000000    0.00000000    0.00000000
     atom   20 type  1   force =     0.00000000    0.00000000    0.00000000
     atom   21 type  1   force =     0.00000000    0.00000000    0.00000000
     atom   22 type  1   force =     0.00000000    0.00000000    0.00000000
     atom   23 type  1   force =     0.00000000    0.00000000    0.00000000
     atom   24 type  1   force =     0.00000000    0.00000000    0.00000000
     atom   25 type  1   force =     0.00000000    0.00000000    0.00000000
     atom   26 type  1   force =     0.00000000    0.00000000    0.00000000
     atom   27 type  1   force =     0.00000000    0.00000000    0.00000000
     atom   28 type  1   force =     0.00000000    0.00000000    0.00000000
     atom   29 type  1   force =     0.00000000    0.00000000    0.00000000
     atom   30 type  1   force =     0.00000000    0.00000000    0.00000000
     atom   31 type  1   force =     0.00000000    0.00000000    0.00000000
     atom   32 type  1   force =     0.00000000    0.00000000    0.00000000
     atom   33 type  1   force =     0.00000000    0.00000000    0.00000000
     atom   34 type  1   force =     0.00000000    0.00000000    0.00000000
     atom   35 type  1   force =     0.00000000    0.00000000    0.00000000
     atom   36 type  1   force =     0.00000000    0.00000000    0.00000000
     atom   37 type  2   force =     0.00000000    0.00000000    0.00000000
     atom   38 type  3   force =     0.00000000    0.00000000    0.00000000
     The SCF correction term to forces
     atom    1 type  1   force =     0.00000000    0.00000000    0.00000000
     atom    2 type  1   force =     0.00000000    0.00000000    0.00000000
     atom    3 type  1   force =     0.00000000    0.00000000    0.00000000
     atom    4 type  1   force =     0.00000000    0.00000000    0.00000000
     atom    5 type  1   force =     0.00000000    0.00000000    0.00000000
     atom    6 type  1   force =     0.00000000    0.00000000    0.00000000
     atom    7 type  1   force =     0.00000000    0.00000000    0.00000000
     atom    8 type  1   force =     0.00000000    0.00000000    0.00000000
     atom    9 type  1   force =     0.00000000    0.00000000    0.00000000
     atom   10 type  1   force =     0.00000029    0.00000018    0.00000196
     atom   11 type  1   force =    -0.00000001    0.00000009    0.00000187
     atom   12 type  1   force =    -0.00000029    0.00000017    0.00000196
     atom   13 type  1   force =     0.00000007   -0.00000004    0.00000189
     atom   14 type  1   force =    -0.00000008   -0.00000004    0.00000188
     atom   15 type  1   force =     0.00000001    0.00000024    0.00000187
     atom   16 type  1   force =    -0.00000000   -0.00000035    0.00000196
     atom   17 type  1   force =     0.00000021   -0.00000013    0.00000187
     atom   18 type  1   force =    -0.00000020   -0.00000013    0.00000187
     atom   19 type  1   force =     0.00000001    0.00000027    0.00000278
     atom   20 type  1   force =     0.00000025    0.00000016    0.00000279
     atom   21 type  1   force =    -0.00000026    0.00000015    0.00000279
     atom   22 type  1   force =     0.00000004   -0.00000003    0.00000272
     atom   23 type  1   force =    -0.00000001   -0.00000030    0.00000278
     atom   24 type  1   force =    -0.00000004   -0.00000002    0.00000272
     atom   25 type  1   force =    -0.00000023   -0.00000014    0.00000278
     atom   26 type  1   force =     0.00000022   -0.00000013    0.00000278
     atom   27 type  1   force =     0.00000000    0.00000004    0.00000272
     atom   28 type  1   force =     0.00000000   -0.00000000    0.00000194
     atom   29 type  1   force =     0.00000020    0.00000012    0.00000182
     atom   30 type  1   force =    -0.00000020    0.00000012    0.00000182
     atom   31 type  1   force =     0.00000021    0.00000012    0.00000181
     atom   32 type  1   force =    -0.00000000    0.00000000    0.00000170
     atom   33 type  1   force =    -0.00000020    0.00000012    0.00000182
     atom   34 type  1   force =    -0.00000000   -0.00000024    0.00000181
     atom   35 type  1   force =    -0.00000000   -0.00000024    0.00000181
     atom   36 type  1   force =     0.00000000   -0.00000001    0.00000173
     atom   37 type  2   force =    -0.00000000    0.00000000    0.00000010
     atom   38 type  3   force =    -0.00000000    0.00000000   -0.00000010

     Total force =     0.002342     Total SCF correction =     0.000011

     Writing all to output data dir tmp/Cu-vib.save/

     General routines

     Parallel routines

     PAW routines

   This run was terminated on:   2:54: 6   6Jul2024

   JOB DONE.