     Program PWSCF v.7.2 starts on 11Jun2024 at 22:27:36

     Reading input from Cu-1050-7.74485508512641.pwi
Warning: card &CELL ignored
Warning: card / ignored

     Current dimensions of program PWSCF are:
     Max number of different atomic species (ntypx) = 10
     Max number of k-points (npk) =  40000
     Max angular momentum in pseudopotentials (lmaxx) =  4
     file Cu.beef-dn-kjpaw_psl.1.0.0.UPF: wavefunction(s)  4S 3D renormalized

     IMPORTANT: XC functional enforced from input :
     Exchange-correlation= BEEF-VDW
                           (   1   4  43  14   2   0   0)
     Any further DFT definition will be discarded
     Please, verify this is what you really want

     Found identity + (  0.3333  0.0000  0.0000) symmetry
     This is a supercell, fractional translations are disabled
     Message from routine setup:
     using ibrav=0 with symmetry is DISCOURAGED, use correct ibrav instead

     K-points division:     npool     =       2
     R & G space division:  proc/nbgrp/npool/nimage =      64
     Subspace diagonalization in iterative solution of the eigenvalue problem:
     one sub-group per band group will be used

     Using Slab Decomposition

     Title:
     Cu-1050-7.74485508512641

     bravais-lattice index     =            0
     lattice parameter (alat)  =      14.6357  a.u.
     unit-cell volume          =    7475.0710 (a.u.)^3
     number of atoms/cell      =           36
     number of atomic types    =            1
     number of electrons       =       396.00
     number of Kohn-Sham states=          238
     kinetic-energy cutoff     =      77.1736  Ry
     charge density cutoff     =     771.7358  Ry
     scf convergence threshold =      7.3E-12
     mixing beta               =       0.3333
     number of iterations used =           12  local-TF  mixing
     energy convergence thresh.=      7.3E-07
     force convergence thresh. =      3.9E-04
     Exchange-correlation= BEEF-VDW
                           (   1   4  43  14   2   0   0)
     nstep                     =           50

     Effective Screening Medium Method
     Boundary Conditions: Vacuum-Slab-Metal
     total charge in unit cell        =   0.0000
     grid points for fit at edges     =        4

     celldm(1)=  14.635655  celldm(2)=   0.000000  celldm(3)=   0.000000
     celldm(4)=   0.000000  celldm(5)=   0.000000  celldm(6)=   0.000000

     crystal axes: (cart. coord. in units of alat)
               a(1) = (   1.000000   0.000000   0.000000 )
               a(2) = (   0.500000   0.866025   0.000000 )
               a(3) = (   0.000000   0.000000   2.753266 )

     reciprocal axes: (cart. coord. in units 2 pi/alat)
               b(1) = (  1.000000 -0.577350  0.000000 )
               b(2) = (  0.000000  1.154701  0.000000 )
               b(3) = (  0.000000  0.000000  0.363205 )

     PseudoPot. # 1 for Cu read from file:
     /home/k0227/k022716/QE/pseudo/beef/Cu.beef-dn-kjpaw_psl.1.0.0.UPF
     MD5 check sum: 5c2e06f1363dd15696904a521997ce16
     Pseudo is Projector augmented-wave + core cor, Zval = 11.0
     Generated using 'atomic' code by A. Dal Corso  v.7.2
     Shape of augmentation charge: PSQ
     Using radial grid of 1199 points,  6 beta functions with:
                l(1) =   0
                l(2) =   0
                l(3) =   1
                l(4) =   1
                l(5) =   2
                l(6) =   2
     Q(r) pseudized with 0 coefficients

     atomic species   valence    mass     pseudopotential
        Cu            11.00    63.54600     Cu( 1.00)

      6 Sym. Ops. (no inversion) found

                                    s                        frac. trans.

      isym =  1     identity

 cryst.   s( 1) = (     1          0          0      )
                  (     0          1          0      )
                  (     0          0          1      )

 cart.    s( 1) = (  1.0000000  0.0000000  0.0000000 )
                  (  0.0000000  1.0000000  0.0000000 )
                  (  0.0000000  0.0000000  1.0000000 )

      isym =  2     120 deg rotation - cryst. axis [0,0,1]

[...]

      isym =  3     120 deg rotation - cryst. axis [0,0,-1]

[...]

      isym =  4     inv. 180 deg rotation - cart. axis [1,0,0]

[...]

      isym =  5     inv. 180 deg rotation - cryst. axis [0,1,0]

[...]

      isym =  6     inv. 180 deg rotation - cryst. axis [1,1,0]

 cryst.   s( 6) = (     1         -1          0      )
                  (     0         -1          0      )
                  (     0          0          1      )

 cart.    s( 6) = (  0.5000000 -0.8660254  0.0000000 )
                  ( -0.8660254 -0.5000000  0.0000000 )
                  (  0.0000000  0.0000000  1.0000000 )

   Cartesian axes

     site n.     atom                  positions (alat units)
         1           Cu  tau(   1) = (   0.0000000   0.0000000  -0.8212382  )
         2           Cu  tau(   2) = (   0.3333333   0.0000000  -0.8212382  )
         3           Cu  tau(   3) = (   0.6666667   0.0000000  -0.8212382  )
         4           Cu  tau(   4) = (   0.1666667   0.2886751  -0.8212382  )
         5           Cu  tau(   5) = (   0.5000000   0.2886751  -0.8212382  )
         6           Cu  tau(   6) = (   0.8333333   0.2886751  -0.8212382  )
         7           Cu  tau(   7) = (   0.3333333   0.5773503  -0.8212382  )
         8           Cu  tau(   8) = (   0.6666667   0.5773503  -0.8212382  )
         9           Cu  tau(   9) = (   1.0000000   0.5773503  -0.8212382  )
        10           Cu  tau(  10) = (   0.1666667   0.0962250  -0.5490727  )
        11           Cu  tau(  11) = (   0.5000000   0.0962250  -0.5490727  )
        12           Cu  tau(  12) = (   0.8333333   0.0962250  -0.5490727  )
        13           Cu  tau(  13) = (   0.3333333   0.3849002  -0.5490727  )
        14           Cu  tau(  14) = (   0.6666667   0.3849002  -0.5490727  )
        15           Cu  tau(  15) = (   1.0000000   0.3849002  -0.5490727  )
        16           Cu  tau(  16) = (   0.5000000   0.6735753  -0.5490727  )
        17           Cu  tau(  17) = (   0.8333333   0.6735753  -0.5490727  )
        18           Cu  tau(  18) = (   1.1666667   0.6735753  -0.5490727  )
        19           Cu  tau(  19) = (   0.0000000   0.1924501  -0.2769072  )
        20           Cu  tau(  20) = (   0.3333333   0.1924501  -0.2769072  )
        21           Cu  tau(  21) = (   0.6666667   0.1924501  -0.2769072  )
        22           Cu  tau(  22) = (   0.1666667   0.4811252  -0.2769072  )
        23           Cu  tau(  23) = (   0.5000000   0.4811252  -0.2769072  )
        24           Cu  tau(  24) = (   0.8333333   0.4811252  -0.2769072  )
        25           Cu  tau(  25) = (   0.3333333   0.7698004  -0.2769072  )
        26           Cu  tau(  26) = (   0.6666667   0.7698004  -0.2769072  )
        27           Cu  tau(  27) = (   1.0000000   0.7698004  -0.2769072  )
        28           Cu  tau(  28) = (   0.0000000   0.0000000  -0.0047416  )
        29           Cu  tau(  29) = (   0.3333333   0.0000000  -0.0047416  )
        30           Cu  tau(  30) = (   0.6666667   0.0000000  -0.0047416  )
        31           Cu  tau(  31) = (   0.1666667   0.2886751  -0.0047416  )
        32           Cu  tau(  32) = (   0.5000000   0.2886751  -0.0047416  )
        33           Cu  tau(  33) = (   0.8333333   0.2886751  -0.0047416  )
        34           Cu  tau(  34) = (   0.3333333   0.5773503  -0.0047416  )
        35           Cu  tau(  35) = (   0.6666667   0.5773503  -0.0047416  )
        36           Cu  tau(  36) = (   1.0000000   0.5773503  -0.0047416  )

   Crystallographic axes

     site n.     atom                  positions (cryst. coord.)
         1           Cu  tau(   1) = (  0.0000000  0.0000000 -0.2982778  )
         2           Cu  tau(   2) = (  0.3333333  0.0000000 -0.2982778  )
         3           Cu  tau(   3) = (  0.6666667  0.0000000 -0.2982778  )
         4           Cu  tau(   4) = (  0.0000000  0.3333333 -0.2982778  )
         5           Cu  tau(   5) = (  0.3333333  0.3333333 -0.2982778  )
         6           Cu  tau(   6) = (  0.6666667  0.3333333 -0.2982778  )
         7           Cu  tau(   7) = (  0.0000000  0.6666667 -0.2982778  )
         8           Cu  tau(   8) = (  0.3333333  0.6666667 -0.2982778  )
         9           Cu  tau(   9) = (  0.6666667  0.6666667 -0.2982778  )
        10           Cu  tau(  10) = (  0.1111111  0.1111111 -0.1994259  )
        11           Cu  tau(  11) = (  0.4444444  0.1111111 -0.1994259  )
        12           Cu  tau(  12) = (  0.7777778  0.1111111 -0.1994259  )
        13           Cu  tau(  13) = (  0.1111111  0.4444444 -0.1994259  )
        14           Cu  tau(  14) = (  0.4444444  0.4444444 -0.1994259  )
        15           Cu  tau(  15) = (  0.7777778  0.4444444 -0.1994259  )
        16           Cu  tau(  16) = (  0.1111111  0.7777778 -0.1994259  )
        17           Cu  tau(  17) = (  0.4444444  0.7777778 -0.1994259  )
        18           Cu  tau(  18) = (  0.7777778  0.7777778 -0.1994259  )
        19           Cu  tau(  19) = ( -0.1111111  0.2222222 -0.1005741  )
        20           Cu  tau(  20) = (  0.2222222  0.2222222 -0.1005741  )
        21           Cu  tau(  21) = (  0.5555556  0.2222222 -0.1005741  )
        22           Cu  tau(  22) = ( -0.1111111  0.5555556 -0.1005741  )
        23           Cu  tau(  23) = (  0.2222222  0.5555556 -0.1005741  )
        24           Cu  tau(  24) = (  0.5555556  0.5555556 -0.1005741  )
        25           Cu  tau(  25) = ( -0.1111111  0.8888889 -0.1005741  )
        26           Cu  tau(  26) = (  0.2222222  0.8888889 -0.1005741  )
        27           Cu  tau(  27) = (  0.5555556  0.8888889 -0.1005741  )
        28           Cu  tau(  28) = (  0.0000000  0.0000000 -0.0017222  )
        29           Cu  tau(  29) = (  0.3333333  0.0000000 -0.0017222  )
        30           Cu  tau(  30) = (  0.6666667  0.0000000 -0.0017222  )
        31           Cu  tau(  31) = (  0.0000000  0.3333333 -0.0017222  )
        32           Cu  tau(  32) = (  0.3333333  0.3333333 -0.0017222  )
        33           Cu  tau(  33) = (  0.6666667  0.3333333 -0.0017222  )
        34           Cu  tau(  34) = (  0.0000000  0.6666667 -0.0017222  )
        35           Cu  tau(  35) = (  0.3333333  0.6666667 -0.0017222  )
        36           Cu  tau(  36) = (  0.6666667  0.6666667 -0.0017222  )

     number of k points=    10  Marzari-Vanderbilt smearing, width (Ry)=  0.0073
                       cart. coord. in units 2pi/alat
        k(    1) = (   0.0000000   0.0000000   0.0000000), wk =   0.0312500
        k(    2) = (   0.0000000   0.1443376   0.0000000), wk =   0.1875000
        k(    3) = (   0.0000000   0.2886751   0.0000000), wk =   0.1875000
        k(    4) = (   0.0000000   0.4330127   0.0000000), wk =   0.1875000
        k(    5) = (   0.0000000  -0.5773503   0.0000000), wk =   0.0937500
        k(    6) = (   0.1250000   0.2165064   0.0000000), wk =   0.1875000
        k(    7) = (   0.1250000   0.3608439   0.0000000), wk =   0.3750000
        k(    8) = (   0.1250000  -0.6495191   0.0000000), wk =   0.3750000
[...]
     atom    6 type  1   force =    -0.00000003    0.00000019   74.38329743
     atom    7 type  1   force =    -0.00000015   -0.00000012   74.38329742
     atom    8 type  1   force =     0.00000015   -0.00000012   74.38329742
     atom    9 type  1   force =     0.00000000    0.00000000   74.38329765
     atom   10 type  1   force =    -0.00000016   -0.00000009  221.31238583
     atom   11 type  1   force =    -0.00000000   -0.00000038  221.31238741
     atom   12 type  1   force =     0.00000016   -0.00000009  221.31238583
     atom   13 type  1   force =    -0.00000033    0.00000019  221.31238741
     atom   14 type  1   force =     0.00000033    0.00000019  221.31238741
     atom   15 type  1   force =     0.00000000    0.00000054  221.31238697
     atom   16 type  1   force =    -0.00000000    0.00000018  221.31238583
     atom   17 type  1   force =     0.00000046   -0.00000027  221.31238697
     atom   18 type  1   force =    -0.00000046   -0.00000027  221.31238697
     atom   19 type  1   force =    -0.00000000    0.00000008  368.84926949
     atom   20 type  1   force =     0.00000006    0.00000003  368.84927029
     atom   21 type  1   force =    -0.00000005    0.00000003  368.84927029
     atom   22 type  1   force =    -0.00000047    0.00000027  368.84927188
     atom   23 type  1   force =    -0.00000000   -0.00000006  368.84927029
     atom   24 type  1   force =     0.00000047    0.00000027  368.84927188
     atom   25 type  1   force =    -0.00000007   -0.00000004  368.84926949
     atom   26 type  1   force =     0.00000007   -0.00000004  368.84926949
     atom   27 type  1   force =     0.00000000   -0.00000054  368.84927189
     atom   28 type  1   force =    -0.00000000   -0.00000000  515.78320290
     atom   29 type  1   force =     0.00000018    0.00000004  515.78320567
     atom   30 type  1   force =    -0.00000018    0.00000004  515.78320567
     atom   31 type  1   force =     0.00000013    0.00000014  515.78320567
     atom   32 type  1   force =    -0.00000000   -0.00000000  515.78320300
     atom   33 type  1   force =    -0.00000013    0.00000014  515.78320567
     atom   34 type  1   force =    -0.00000005   -0.00000018  515.78320567
     atom   35 type  1   force =     0.00000005   -0.00000018  515.78320567
     atom   36 type  1   force =     0.00000000    0.00000000  515.78320839
     The local contribution  to forces
     atom    1 type  1   force =     0.00000000    0.00000000  -74.27355309
     atom    2 type  1   force =    -0.00000018    0.00000007  -74.27355322
     atom    3 type  1   force =     0.00000018    0.00000007  -74.27355322
     atom    4 type  1   force =    -0.00000003   -0.00000019  -74.27355322
     atom    5 type  1   force =    -0.00000001    0.00000000  -74.27355324
     atom    6 type  1   force =     0.00000002   -0.00000019  -74.27355322
     atom    7 type  1   force =     0.00000015    0.00000012  -74.27355322
     atom    8 type  1   force =    -0.00000015    0.00000012  -74.27355322
     atom    9 type  1   force =     0.00000000    0.00000001  -74.27355344
     atom   10 type  1   force =     0.00000015    0.00000010 -221.28767105
     atom   11 type  1   force =    -0.00000001    0.00000038 -221.28767263
     atom   12 type  1   force =    -0.00000016    0.00000010 -221.28767105
     atom   13 type  1   force =     0.00000033   -0.00000020 -221.28767263
     atom   14 type  1   force =    -0.00000032   -0.00000020 -221.28767263
     atom   15 type  1   force =     0.00000000   -0.00000054 -221.28767219
     atom   16 type  1   force =    -0.00000001   -0.00000019 -221.28767105
     atom   17 type  1   force =    -0.00000047    0.00000026 -221.28767219
     atom   18 type  1   force =     0.00000046    0.00000026 -221.28767219
     atom   19 type  1   force =    -0.00000000   -0.00000008 -368.87411792
     atom   20 type  1   force =    -0.00000005   -0.00000004 -368.87411872
     atom   21 type  1   force =     0.00000006   -0.00000004 -368.87411872
     atom   22 type  1   force =     0.00000046   -0.00000027 -368.87412031
     atom   23 type  1   force =    -0.00000001    0.00000006 -368.87411872
     atom   24 type  1   force =    -0.00000048   -0.00000027 -368.87412031
     atom   25 type  1   force =     0.00000007    0.00000004 -368.87411792
     atom   26 type  1   force =    -0.00000006    0.00000004 -368.87411792
     atom   27 type  1   force =     0.00000000    0.00000054 -368.87412031
     atom   28 type  1   force =     0.00000000    0.00000000 -515.89317051
     atom   29 type  1   force =    -0.00000018   -0.00000004 -515.89317329
     atom   30 type  1   force =     0.00000019   -0.00000004 -515.89317329
     atom   31 type  1   force =    -0.00000014   -0.00000013 -515.89317329
     atom   32 type  1   force =    -0.00000001    0.00000000 -515.89317061
     atom   33 type  1   force =     0.00000012   -0.00000013 -515.89317329
     atom   34 type  1   force =     0.00000006    0.00000019 -515.89317329
     atom   35 type  1   force =    -0.00000005    0.00000019 -515.89317329
     atom   36 type  1   force =     0.00000000    0.00000001 -515.89317602
     The core correction contribution to forces
     atom    1 type  1   force =     0.00000000   -0.00000000    0.01667710
     atom    2 type  1   force =     0.00000000    0.00000000    0.01667710
     atom    3 type  1   force =     0.00000000    0.00000000    0.01667710
     atom    4 type  1   force =    -0.00000000    0.00000000    0.01667710
     atom    5 type  1   force =    -0.00000000    0.00000000    0.01667710
     atom    6 type  1   force =    -0.00000000    0.00000000    0.01667710
     atom    7 type  1   force =     0.00000000    0.00000000    0.01667710
     atom    8 type  1   force =     0.00000000    0.00000000    0.01667710
     atom    9 type  1   force =     0.00000000    0.00000000    0.01667710
     atom   10 type  1   force =    -0.00000000    0.00000000   -0.00048278
     atom   11 type  1   force =    -0.00000000    0.00000000   -0.00048278
     atom   12 type  1   force =    -0.00000000    0.00000000   -0.00048278
     atom   13 type  1   force =     0.00000000   -0.00000000   -0.00048278
     atom   14 type  1   force =     0.00000000   -0.00000000   -0.00048278
     atom   15 type  1   force =     0.00000000   -0.00000000   -0.00048278
     atom   16 type  1   force =    -0.00000000   -0.00000000   -0.00048278
     atom   17 type  1   force =    -0.00000000   -0.00000000   -0.00048278
     atom   18 type  1   force =    -0.00000000   -0.00000000   -0.00048278
     atom   19 type  1   force =    -0.00000000   -0.00000000    0.00044731
     atom   20 type  1   force =     0.00000000   -0.00000000    0.00044731
     atom   21 type  1   force =     0.00000000   -0.00000000    0.00044731
     atom   22 type  1   force =    -0.00000000   -0.00000000    0.00044731
     atom   23 type  1   force =    -0.00000000   -0.00000000    0.00044731
     atom   24 type  1   force =    -0.00000000   -0.00000000    0.00044731
     atom   25 type  1   force =    -0.00000000    0.00000000    0.00044731
     atom   26 type  1   force =     0.00000000    0.00000000    0.00044731
     atom   27 type  1   force =     0.00000000    0.00000000    0.00044731
     atom   28 type  1   force =    -0.00000000    0.00000000   -0.01663844
     atom   29 type  1   force =     0.00000000    0.00000000   -0.01663844
     atom   30 type  1   force =     0.00000000    0.00000000   -0.01663844
     atom   31 type  1   force =    -0.00000000    0.00000000   -0.01663844
     atom   32 type  1   force =    -0.00000000    0.00000000   -0.01663844
     atom   33 type  1   force =    -0.00000000    0.00000000   -0.01663844
     atom   34 type  1   force =     0.00000000    0.00000000   -0.01663844
     atom   35 type  1   force =     0.00000000    0.00000000   -0.01663844
     atom   36 type  1   force =     0.00000000    0.00000000   -0.01663844
     The Hubbard contrib.    to forces
     atom    1 type  1   force =     0.00000000    0.00000000    0.00000000
     atom    2 type  1   force =     0.00000000    0.00000000    0.00000000
     atom    3 type  1   force =     0.00000000    0.00000000    0.00000000
     atom    4 type  1   force =     0.00000000    0.00000000    0.00000000
     atom    5 type  1   force =     0.00000000    0.00000000    0.00000000
     atom    6 type  1   force =     0.00000000    0.00000000    0.00000000
     atom    7 type  1   force =     0.00000000    0.00000000    0.00000000
     atom    8 type  1   force =     0.00000000    0.00000000    0.00000000
     atom    9 type  1   force =     0.00000000    0.00000000    0.00000000
     atom   10 type  1   force =     0.00000000    0.00000000    0.00000000
     atom   11 type  1   force =     0.00000000    0.00000000    0.00000000
     atom   12 type  1   force =     0.00000000    0.00000000    0.00000000
     atom   13 type  1   force =     0.00000000    0.00000000    0.00000000
     atom   14 type  1   force =     0.00000000    0.00000000    0.00000000
     atom   15 type  1   force =     0.00000000    0.00000000    0.00000000
     atom   16 type  1   force =     0.00000000    0.00000000    0.00000000
     atom   17 type  1   force =     0.00000000    0.00000000    0.00000000
     atom   18 type  1   force =     0.00000000    0.00000000    0.00000000
     atom   19 type  1   force =     0.00000000    0.00000000    0.00000000
     atom   20 type  1   force =     0.00000000    0.00000000    0.00000000
     atom   21 type  1   force =     0.00000000    0.00000000    0.00000000
     atom   22 type  1   force =     0.00000000    0.00000000    0.00000000
     atom   23 type  1   force =     0.00000000    0.00000000    0.00000000
     atom   24 type  1   force =     0.00000000    0.00000000    0.00000000
     atom   25 type  1   force =     0.00000000    0.00000000    0.00000000
     atom   26 type  1   force =     0.00000000    0.00000000    0.00000000
     atom   27 type  1   force =     0.00000000    0.00000000    0.00000000
     atom   28 type  1   force =     0.00000000    0.00000000    0.00000000
     atom   29 type  1   force =     0.00000000    0.00000000    0.00000000
     atom   30 type  1   force =     0.00000000    0.00000000    0.00000000
     atom   31 type  1   force =     0.00000000    0.00000000    0.00000000
     atom   32 type  1   force =     0.00000000    0.00000000    0.00000000
     atom   33 type  1   force =     0.00000000    0.00000000    0.00000000
     atom   34 type  1   force =     0.00000000    0.00000000    0.00000000
     atom   35 type  1   force =     0.00000000    0.00000000    0.00000000
     atom   36 type  1   force =     0.00000000    0.00000000    0.00000000
     The SCF correction term to forces
     atom    1 type  1   force =     0.00000000    0.00000000    0.00000000
     atom    2 type  1   force =     0.00000000    0.00000000    0.00000000
     atom    3 type  1   force =     0.00000000    0.00000000    0.00000000
     atom    4 type  1   force =     0.00000000    0.00000000    0.00000000
     atom    5 type  1   force =     0.00000000    0.00000000    0.00000000
     atom    6 type  1   force =     0.00000000    0.00000000    0.00000000
     atom    7 type  1   force =     0.00000000    0.00000000    0.00000000
     atom    8 type  1   force =     0.00000000    0.00000000    0.00000000
     atom    9 type  1   force =     0.00000000    0.00000000    0.00000000
     atom   10 type  1   force =     0.00000000    0.00000000    0.00000007
     atom   11 type  1   force =    -0.00000000    0.00000000    0.00000007
     atom   12 type  1   force =    -0.00000000    0.00000000    0.00000007
     atom   13 type  1   force =     0.00000000   -0.00000000    0.00000007
     atom   14 type  1   force =    -0.00000000   -0.00000000    0.00000007
     atom   15 type  1   force =     0.00000000   -0.00000000    0.00000007
     atom   16 type  1   force =    -0.00000000   -0.00000000    0.00000007
     atom   17 type  1   force =    -0.00000000    0.00000000    0.00000007
     atom   18 type  1   force =     0.00000000    0.00000000    0.00000007
     atom   19 type  1   force =    -0.00000000    0.00000000   -0.00000001
     atom   20 type  1   force =     0.00000000    0.00000000   -0.00000001
     atom   21 type  1   force =    -0.00000000    0.00000000   -0.00000001
     atom   22 type  1   force =     0.00000000   -0.00000000   -0.00000001
     atom   23 type  1   force =     0.00000000   -0.00000000   -0.00000001
     atom   24 type  1   force =    -0.00000000   -0.00000000   -0.00000001
     atom   25 type  1   force =    -0.00000000   -0.00000000   -0.00000001
     atom   26 type  1   force =     0.00000000   -0.00000000   -0.00000001
     atom   27 type  1   force =    -0.00000000    0.00000000   -0.00000001
     atom   28 type  1   force =     0.00000000   -0.00000000    0.00000003
     atom   29 type  1   force =     0.00000000   -0.00000000    0.00000003
     atom   30 type  1   force =    -0.00000000   -0.00000000    0.00000003
     atom   31 type  1   force =     0.00000000    0.00000000    0.00000003
     atom   32 type  1   force =     0.00000000   -0.00000000    0.00000003
     atom   33 type  1   force =    -0.00000000    0.00000000    0.00000003
     atom   34 type  1   force =    -0.00000000   -0.00000000    0.00000003
     atom   35 type  1   force =     0.00000000   -0.00000000    0.00000003
     atom   36 type  1   force =     0.00000000   -0.00000000    0.00000003

     Total force =     0.001127     Total SCF correction =     0.000000
     Energy error            =      5.7E-07 Ry
     Gradient error          =      2.7E-04 Ry/Bohr

     bfgs converged in  15 scf cycles and  14 bfgs steps
     (criteria: energy <  7.3E-07 Ry, force <  3.9E-04 Ry/Bohr)

     End of BFGS Geometry Optimization

     Final energy             =   -7839.3386349998 Ry

     File tmp/Cu-1050-7.74485508512641.bfgs deleted, as requested
Begin final coordinates

ATOMIC_POSITIONS (angstrom)
Cu            0.0000000000        0.0000000000       -6.3603710029    0   0   0
Cu            2.5816183617        0.0000000000       -6.3603710029    0   0   0
Cu            5.1632367234        0.0000000000       -6.3603710029    0   0   0
Cu            1.2908091809        2.2357470841       -6.3603710029    0   0   0
Cu            3.8724275426        2.2357470841       -6.3603710029    0   0   0
Cu            6.4540459043        2.2357470841       -6.3603710029    0   0   0
Cu            2.5816183617        4.4714941682       -6.3603710029    0   0   0
Cu            5.1632367234        4.4714941682       -6.3603710029    0   0   0
Cu            7.7448550851        4.4714941682       -6.3603710029    0   0   0
Cu            1.2908091873        0.7452490317       -4.2725159964
Cu            3.8724275426        0.7452490343       -4.2725159700
Cu            6.4540458979        0.7452490317       -4.2725159964
Cu            2.5816183671        2.9809961091       -4.2725159700
Cu            5.1632367180        2.9809961091       -4.2725159700
Cu            7.7448550851        2.9809961062       -4.2725159802
Cu            3.8724275426        5.2167431889       -4.2725159964
Cu            6.4540458991        5.2167431993       -4.2725159802
Cu            9.0356642712        5.2167431993       -4.2725159802
Cu            0.0000000000        1.4904980632       -2.1841242256
Cu            2.5816183509        1.4904980499       -2.1841242164
Cu            5.1632367342        1.4904980499       -2.1841242164
Cu            1.2908091839        3.7262451385       -2.1841241919
Cu            3.8724275426        3.7262451527       -2.1841242164
Cu            6.4540459013        3.7262451385       -2.1841241919
Cu            2.5816183556        5.9619922208       -2.1841242256
Cu            5.1632367295        5.9619922208       -2.1841242256
Cu            7.7448550851        5.9619922278       -2.1841241919
Cu            0.0000000000        0.0000000000       -0.0948348203
Cu            2.5816183532        0.0000000013       -0.0948347706
Cu            5.1632367319        0.0000000013       -0.0948347706
Cu            1.2908091778        2.2357470761       -0.0948347706
Cu            3.8724275426        2.2357470841       -0.0948348203
Cu            6.4540459074        2.2357470761       -0.0948347706
Cu            2.5816183670        4.4714941749       -0.0948347706
Cu            5.1632367181        4.4714941749       -0.0948347706
Cu            7.7448550851        4.4714941682       -0.0948347141
End final coordinates

     Writing all to output data dir tmp/Cu-1050-7.74485508512641.save/

     General routines

     Parallel routines

     PAW routines

   This run was terminated on:   1:14: 8  12Jun2024

   JOB DONE.