     Program PWSCF v.7.2 starts on 12Jun2024 at  1:14:16

     Reading input from Cu-1200-7.750918200505966.pwi
Warning: card &CELL ignored
Warning: card / ignored

     Current dimensions of program PWSCF are:
     Max number of different atomic species (ntypx) = 10
     Max number of k-points (npk) =  40000
     Max angular momentum in pseudopotentials (lmaxx) =  4
     file Cu.beef-dn-kjpaw_psl.1.0.0.UPF: wavefunction(s)  4S 3D renormalized

     IMPORTANT: XC functional enforced from input :
     Exchange-correlation= BEEF-VDW
                           (   1   4  43  14   2   0   0)
     Any further DFT definition will be discarded
     Please, verify this is what you really want

     Found identity + (  0.3333  0.0000  0.0000) symmetry
     This is a supercell, fractional translations are disabled
     Message from routine setup:
     using ibrav=0 with symmetry is DISCOURAGED, use correct ibrav instead

     K-points division:     npool     =       2
     R & G space division:  proc/nbgrp/npool/nimage =      64
     Subspace diagonalization in iterative solution of the eigenvalue problem:
     one sub-group per band group will be used

     Using Slab Decomposition

     Title:
     Cu-1200-7.750918200505966

     bravais-lattice index     =            0
     lattice parameter (alat)  =      14.6471  a.u.
     unit-cell volume          =    7488.5176 (a.u.)^3
     number of atoms/cell      =           36
     number of atomic types    =            1
     number of electrons       =       396.00
     number of Kohn-Sham states=          238
     kinetic-energy cutoff     =      88.1984  Ry
     charge density cutoff     =     881.9837  Ry
     scf convergence threshold =      7.3E-12
     mixing beta               =       0.3333
     number of iterations used =           12  local-TF  mixing
     energy convergence thresh.=      7.3E-07
     force convergence thresh. =      3.9E-04
     Exchange-correlation= BEEF-VDW
                           (   1   4  43  14   2   0   0)
     nstep                     =           50

     Effective Screening Medium Method
     Boundary Conditions: Vacuum-Slab-Metal
     total charge in unit cell        =   0.0000
     grid points for fit at edges     =        4

     celldm(1)=  14.647113  celldm(2)=   0.000000  celldm(3)=   0.000000
     celldm(4)=   0.000000  celldm(5)=   0.000000  celldm(6)=   0.000000

     crystal axes: (cart. coord. in units of alat)
               a(1) = (   1.000000   0.000000   0.000000 )
               a(2) = (   0.500000   0.866025   0.000000 )
               a(3) = (   0.000000   0.000000   2.751751 )

     reciprocal axes: (cart. coord. in units 2 pi/alat)
               b(1) = (  1.000000 -0.577350  0.000000 )
               b(2) = (  0.000000  1.154701  0.000000 )
               b(3) = (  0.000000  0.000000  0.363405 )

     PseudoPot. # 1 for Cu read from file:
     /home/k0227/k022716/QE/pseudo/beef/Cu.beef-dn-kjpaw_psl.1.0.0.UPF
     MD5 check sum: 5c2e06f1363dd15696904a521997ce16
     Pseudo is Projector augmented-wave + core cor, Zval = 11.0
     Generated using 'atomic' code by A. Dal Corso  v.7.2
     Shape of augmentation charge: PSQ
     Using radial grid of 1199 points,  6 beta functions with:
                l(1) =   0
                l(2) =   0
                l(3) =   1
                l(4) =   1
                l(5) =   2
                l(6) =   2
     Q(r) pseudized with 0 coefficients

     atomic species   valence    mass     pseudopotential
        Cu            11.00    63.54600     Cu( 1.00)

      6 Sym. Ops. (no inversion) found

                                    s                        frac. trans.

      isym =  1     identity

 cryst.   s( 1) = (     1          0          0      )
                  (     0          1          0      )
                  (     0          0          1      )

 cart.    s( 1) = (  1.0000000  0.0000000  0.0000000 )
                  (  0.0000000  1.0000000  0.0000000 )
                  (  0.0000000  0.0000000  1.0000000 )

      isym =  2     120 deg rotation - cryst. axis [0,0,1]

[...]

      isym =  3     120 deg rotation - cryst. axis [0,0,-1]

[...]

      isym =  4     inv. 180 deg rotation - cart. axis [1,0,0]

[...]

      isym =  5     inv. 180 deg rotation - cryst. axis [0,1,0]

[...]

      isym =  6     inv. 180 deg rotation - cryst. axis [1,1,0]

 cryst.   s( 6) = (     1         -1          0      )
                  (     0         -1          0      )
                  (     0          0          1      )

 cart.    s( 6) = (  0.5000000 -0.8660254  0.0000000 )
                  ( -0.8660254 -0.5000000  0.0000000 )
                  (  0.0000000  0.0000000  1.0000000 )

   Cartesian axes

     site n.     atom                  positions (alat units)
         1           Cu  tau(   1) = (   0.0000000   0.0000000  -0.8210110  )
         2           Cu  tau(   2) = (   0.3333333   0.0000000  -0.8210110  )
         3           Cu  tau(   3) = (   0.6666667   0.0000000  -0.8210110  )
         4           Cu  tau(   4) = (   0.1666667   0.2886751  -0.8210110  )
         5           Cu  tau(   5) = (   0.5000000   0.2886751  -0.8210110  )
         6           Cu  tau(   6) = (   0.8333333   0.2886751  -0.8210110  )
         7           Cu  tau(   7) = (   0.3333333   0.5773503  -0.8210110  )
         8           Cu  tau(   8) = (   0.6666667   0.5773503  -0.8210110  )
         9           Cu  tau(   9) = (   1.0000000   0.5773503  -0.8210110  )
        10           Cu  tau(  10) = (   0.1666667   0.0962250  -0.5488454  )
        11           Cu  tau(  11) = (   0.5000000   0.0962250  -0.5488454  )
        12           Cu  tau(  12) = (   0.8333333   0.0962250  -0.5488454  )
        13           Cu  tau(  13) = (   0.3333333   0.3849002  -0.5488454  )
        14           Cu  tau(  14) = (   0.6666667   0.3849002  -0.5488454  )
        15           Cu  tau(  15) = (   1.0000000   0.3849002  -0.5488454  )
        16           Cu  tau(  16) = (   0.5000000   0.6735753  -0.5488454  )
        17           Cu  tau(  17) = (   0.8333333   0.6735753  -0.5488454  )
        18           Cu  tau(  18) = (   1.1666667   0.6735753  -0.5488454  )
        19           Cu  tau(  19) = (   0.0000000   0.1924501  -0.2766799  )
        20           Cu  tau(  20) = (   0.3333333   0.1924501  -0.2766799  )
        21           Cu  tau(  21) = (   0.6666667   0.1924501  -0.2766799  )
        22           Cu  tau(  22) = (   0.1666667   0.4811252  -0.2766799  )
        23           Cu  tau(  23) = (   0.5000000   0.4811252  -0.2766799  )
        24           Cu  tau(  24) = (   0.8333333   0.4811252  -0.2766799  )
        25           Cu  tau(  25) = (   0.3333333   0.7698004  -0.2766799  )
        26           Cu  tau(  26) = (   0.6666667   0.7698004  -0.2766799  )
        27           Cu  tau(  27) = (   1.0000000   0.7698004  -0.2766799  )
        28           Cu  tau(  28) = (   0.0000000   0.0000000  -0.0045144  )
        29           Cu  tau(  29) = (   0.3333333   0.0000000  -0.0045144  )
        30           Cu  tau(  30) = (   0.6666667   0.0000000  -0.0045144  )
        31           Cu  tau(  31) = (   0.1666667   0.2886751  -0.0045144  )
        32           Cu  tau(  32) = (   0.5000000   0.2886751  -0.0045144  )
        33           Cu  tau(  33) = (   0.8333333   0.2886751  -0.0045144  )
        34           Cu  tau(  34) = (   0.3333333   0.5773503  -0.0045144  )
        35           Cu  tau(  35) = (   0.6666667   0.5773503  -0.0045144  )
        36           Cu  tau(  36) = (   1.0000000   0.5773503  -0.0045144  )

   Crystallographic axes

     site n.     atom                  positions (cryst. coord.)
         1           Cu  tau(   1) = (  0.0000000  0.0000000 -0.2983595  )
         2           Cu  tau(   2) = (  0.3333333  0.0000000 -0.2983595  )
         3           Cu  tau(   3) = (  0.6666667  0.0000000 -0.2983595  )
         4           Cu  tau(   4) = ( -0.0000000  0.3333333 -0.2983595  )
         5           Cu  tau(   5) = (  0.3333333  0.3333333 -0.2983595  )
         6           Cu  tau(   6) = (  0.6666667  0.3333333 -0.2983595  )
         7           Cu  tau(   7) = (  0.0000000  0.6666667 -0.2983595  )
         8           Cu  tau(   8) = (  0.3333333  0.6666667 -0.2983595  )
         9           Cu  tau(   9) = (  0.6666667  0.6666667 -0.2983595  )
        10           Cu  tau(  10) = (  0.1111111  0.1111111 -0.1994532  )
        11           Cu  tau(  11) = (  0.4444444  0.1111111 -0.1994532  )
        12           Cu  tau(  12) = (  0.7777778  0.1111111 -0.1994532  )
        13           Cu  tau(  13) = (  0.1111111  0.4444444 -0.1994532  )
        14           Cu  tau(  14) = (  0.4444444  0.4444444 -0.1994532  )
        15           Cu  tau(  15) = (  0.7777778  0.4444444 -0.1994532  )
        16           Cu  tau(  16) = (  0.1111111  0.7777778 -0.1994532  )
        17           Cu  tau(  17) = (  0.4444444  0.7777778 -0.1994532  )
        18           Cu  tau(  18) = (  0.7777778  0.7777778 -0.1994532  )
        19           Cu  tau(  19) = ( -0.1111111  0.2222222 -0.1005468  )
        20           Cu  tau(  20) = (  0.2222222  0.2222222 -0.1005468  )
        21           Cu  tau(  21) = (  0.5555556  0.2222222 -0.1005468  )
        22           Cu  tau(  22) = ( -0.1111111  0.5555556 -0.1005468  )
        23           Cu  tau(  23) = (  0.2222222  0.5555556 -0.1005468  )
        24           Cu  tau(  24) = (  0.5555556  0.5555556 -0.1005468  )
        25           Cu  tau(  25) = ( -0.1111111  0.8888889 -0.1005468  )
        26           Cu  tau(  26) = (  0.2222222  0.8888889 -0.1005468  )
        27           Cu  tau(  27) = (  0.5555556  0.8888889 -0.1005468  )
        28           Cu  tau(  28) = (  0.0000000  0.0000000 -0.0016405  )
        29           Cu  tau(  29) = (  0.3333333  0.0000000 -0.0016405  )
        30           Cu  tau(  30) = (  0.6666667  0.0000000 -0.0016405  )
        31           Cu  tau(  31) = ( -0.0000000  0.3333333 -0.0016405  )
        32           Cu  tau(  32) = (  0.3333333  0.3333333 -0.0016405  )
        33           Cu  tau(  33) = (  0.6666667  0.3333333 -0.0016405  )
        34           Cu  tau(  34) = (  0.0000000  0.6666667 -0.0016405  )
        35           Cu  tau(  35) = (  0.3333333  0.6666667 -0.0016405  )
        36           Cu  tau(  36) = (  0.6666667  0.6666667 -0.0016405  )

     number of k points=    10  Marzari-Vanderbilt smearing, width (Ry)=  0.0073
                       cart. coord. in units 2pi/alat
        k(    1) = (   0.0000000   0.0000000   0.0000000), wk =   0.0312500
        k(    2) = (   0.0000000   0.1443376   0.0000000), wk =   0.1875000
        k(    3) = (   0.0000000   0.2886751   0.0000000), wk =   0.1875000
        k(    4) = (   0.0000000   0.4330127   0.0000000), wk =   0.1875000
        k(    5) = (   0.0000000  -0.5773503   0.0000000), wk =   0.0937500
        k(    6) = (   0.1250000   0.2165064   0.0000000), wk =   0.1875000
        k(    7) = (   0.1250000   0.3608439   0.0000000), wk =   0.3750000
        k(    8) = (   0.1250000  -0.6495191   0.0000000), wk =   0.3750000
[...]
     atom    7 type  1   force =    -0.00000001    0.00000003   74.27162048
     atom    8 type  1   force =     0.00000001    0.00000003   74.27162048
     atom    9 type  1   force =     0.00000000    0.00000000   74.27162045
     atom   10 type  1   force =    -0.00000009   -0.00000005  220.96573473
     atom   11 type  1   force =    -0.00000000   -0.00000013  220.96573461
     atom   12 type  1   force =     0.00000009   -0.00000005  220.96573473
     atom   13 type  1   force =    -0.00000011    0.00000006  220.96573461
     atom   14 type  1   force =     0.00000011    0.00000006  220.96573461
     atom   15 type  1   force =     0.00000000   -0.00000015  220.96573485
     atom   16 type  1   force =    -0.00000000    0.00000011  220.96573473
     atom   17 type  1   force =    -0.00000013    0.00000008  220.96573485
     atom   18 type  1   force =     0.00000013    0.00000008  220.96573485
     atom   19 type  1   force =     0.00000000   -0.00000003  368.27309054
     atom   20 type  1   force =    -0.00000006   -0.00000003  368.27309003
     atom   21 type  1   force =     0.00000006   -0.00000004  368.27309003
     atom   22 type  1   force =     0.00000003   -0.00000001  368.27309034
     atom   23 type  1   force =    -0.00000000    0.00000007  368.27309003
     atom   24 type  1   force =    -0.00000003   -0.00000001  368.27309034
     atom   25 type  1   force =     0.00000002    0.00000001  368.27309054
     atom   26 type  1   force =    -0.00000002    0.00000001  368.27309054
     atom   27 type  1   force =     0.00000000    0.00000003  368.27309034
     atom   28 type  1   force =    -0.00000000    0.00000000  514.97182572
     atom   29 type  1   force =     0.00000013    0.00000017  514.97182578
     atom   30 type  1   force =    -0.00000013    0.00000017  514.97182578
     atom   31 type  1   force =     0.00000021    0.00000003  514.97182578
     atom   32 type  1   force =    -0.00000000   -0.00000000  514.97182567
     atom   33 type  1   force =    -0.00000021    0.00000003  514.97182578
     atom   34 type  1   force =     0.00000008   -0.00000020  514.97182578
     atom   35 type  1   force =    -0.00000008   -0.00000020  514.97182578
     atom   36 type  1   force =     0.00000000    0.00000000  514.97182563
     The local contribution  to forces
     atom    1 type  1   force =    -0.00000000   -0.00000000  -74.16113784
     atom    2 type  1   force =     0.00000002    0.00000003  -74.16113783
     atom    3 type  1   force =    -0.00000002    0.00000003  -74.16113783
     atom    4 type  1   force =     0.00000004    0.00000000  -74.16113783
     atom    5 type  1   force =    -0.00000001   -0.00000001  -74.16113775
     atom    6 type  1   force =    -0.00000003    0.00000000  -74.16113783
     atom    7 type  1   force =     0.00000001   -0.00000003  -74.16113783
     atom    8 type  1   force =    -0.00000000   -0.00000003  -74.16113783
     atom    9 type  1   force =     0.00000000    0.00000001  -74.16113780
     atom   10 type  1   force =     0.00000009    0.00000005 -220.94097731
     atom   11 type  1   force =    -0.00000001    0.00000013 -220.94097720
     atom   12 type  1   force =    -0.00000009    0.00000005 -220.94097731
     atom   13 type  1   force =     0.00000011   -0.00000008 -220.94097720
     atom   14 type  1   force =    -0.00000011   -0.00000008 -220.94097720
     atom   15 type  1   force =     0.00000000    0.00000015 -220.94097743
     atom   16 type  1   force =    -0.00000001   -0.00000011 -220.94097731
     atom   17 type  1   force =     0.00000014   -0.00000007 -220.94097743
     atom   18 type  1   force =    -0.00000014   -0.00000007 -220.94097743
     atom   19 type  1   force =     0.00000000    0.00000002 -368.29797487
     atom   20 type  1   force =     0.00000006    0.00000003 -368.29797436
     atom   21 type  1   force =    -0.00000006    0.00000003 -368.29797436
     atom   22 type  1   force =    -0.00000002    0.00000002 -368.29797467
     atom   23 type  1   force =    -0.00000001   -0.00000007 -368.29797436
     atom   24 type  1   force =     0.00000002    0.00000002 -368.29797467
     atom   25 type  1   force =    -0.00000003   -0.00000001 -368.29797487
     atom   26 type  1   force =     0.00000003   -0.00000001 -368.29797487
     atom   27 type  1   force =     0.00000000   -0.00000002 -368.29797467
     atom   28 type  1   force =    -0.00000000   -0.00000000 -515.08252183
     atom   29 type  1   force =    -0.00000013   -0.00000017 -515.08252189
     atom   30 type  1   force =     0.00000013   -0.00000017 -515.08252189
     atom   31 type  1   force =    -0.00000021   -0.00000003 -515.08252189
     atom   32 type  1   force =    -0.00000001   -0.00000001 -515.08252179
     atom   33 type  1   force =     0.00000022   -0.00000003 -515.08252189
     atom   34 type  1   force =    -0.00000009    0.00000020 -515.08252189
     atom   35 type  1   force =     0.00000009    0.00000020 -515.08252189
     atom   36 type  1   force =     0.00000000    0.00000001 -515.08252174
     The core correction contribution to forces
     atom    1 type  1   force =    -0.00000000   -0.00000000    0.01670861
     atom    2 type  1   force =    -0.00000000    0.00000000    0.01670861
     atom    3 type  1   force =     0.00000000    0.00000000    0.01670861
     atom    4 type  1   force =     0.00000000   -0.00000000    0.01670861
     atom    5 type  1   force =    -0.00000000   -0.00000000    0.01670861
     atom    6 type  1   force =    -0.00000000   -0.00000000    0.01670861
     atom    7 type  1   force =    -0.00000000   -0.00000000    0.01670861
     atom    8 type  1   force =     0.00000000   -0.00000000    0.01670861
     atom    9 type  1   force =     0.00000000    0.00000000    0.01670861
     atom   10 type  1   force =     0.00000000    0.00000000   -0.00049558
     atom   11 type  1   force =    -0.00000000    0.00000000   -0.00049558
     atom   12 type  1   force =    -0.00000000    0.00000000   -0.00049558
     atom   13 type  1   force =    -0.00000000   -0.00000000   -0.00049558
     atom   14 type  1   force =     0.00000000   -0.00000000   -0.00049558
     atom   15 type  1   force =     0.00000000   -0.00000000   -0.00049558
     atom   16 type  1   force =    -0.00000000   -0.00000000   -0.00049558
     atom   17 type  1   force =     0.00000000    0.00000000   -0.00049558
     atom   18 type  1   force =    -0.00000000    0.00000000   -0.00049558
     atom   19 type  1   force =     0.00000000   -0.00000000    0.00045376
     atom   20 type  1   force =     0.00000000   -0.00000000    0.00045376
     atom   21 type  1   force =    -0.00000000   -0.00000000    0.00045376
     atom   22 type  1   force =     0.00000000    0.00000000    0.00045376
     atom   23 type  1   force =    -0.00000000   -0.00000000    0.00045376
     atom   24 type  1   force =     0.00000000    0.00000000    0.00045376
     atom   25 type  1   force =    -0.00000000    0.00000000    0.00045376
     atom   26 type  1   force =     0.00000000    0.00000000    0.00045376
     atom   27 type  1   force =     0.00000000    0.00000000    0.00045376
     atom   28 type  1   force =    -0.00000000   -0.00000000   -0.01667241
     atom   29 type  1   force =    -0.00000000    0.00000000   -0.01667241
     atom   30 type  1   force =     0.00000000    0.00000000   -0.01667241
     atom   31 type  1   force =     0.00000000   -0.00000000   -0.01667241
     atom   32 type  1   force =    -0.00000000   -0.00000000   -0.01667241
     atom   33 type  1   force =     0.00000000   -0.00000000   -0.01667241
     atom   34 type  1   force =    -0.00000000    0.00000000   -0.01667241
     atom   35 type  1   force =     0.00000000    0.00000000   -0.01667241
     atom   36 type  1   force =     0.00000000    0.00000000   -0.01667241
     The Hubbard contrib.    to forces
     atom    1 type  1   force =     0.00000000    0.00000000    0.00000000
     atom    2 type  1   force =     0.00000000    0.00000000    0.00000000
     atom    3 type  1   force =     0.00000000    0.00000000    0.00000000
     atom    4 type  1   force =     0.00000000    0.00000000    0.00000000
     atom    5 type  1   force =     0.00000000    0.00000000    0.00000000
     atom    6 type  1   force =     0.00000000    0.00000000    0.00000000
     atom    7 type  1   force =     0.00000000    0.00000000    0.00000000
     atom    8 type  1   force =     0.00000000    0.00000000    0.00000000
     atom    9 type  1   force =     0.00000000    0.00000000    0.00000000
     atom   10 type  1   force =     0.00000000    0.00000000    0.00000000
     atom   11 type  1   force =     0.00000000    0.00000000    0.00000000
     atom   12 type  1   force =     0.00000000    0.00000000    0.00000000
     atom   13 type  1   force =     0.00000000    0.00000000    0.00000000
     atom   14 type  1   force =     0.00000000    0.00000000    0.00000000
     atom   15 type  1   force =     0.00000000    0.00000000    0.00000000
     atom   16 type  1   force =     0.00000000    0.00000000    0.00000000
     atom   17 type  1   force =     0.00000000    0.00000000    0.00000000
     atom   18 type  1   force =     0.00000000    0.00000000    0.00000000
     atom   19 type  1   force =     0.00000000    0.00000000    0.00000000
     atom   20 type  1   force =     0.00000000    0.00000000    0.00000000
     atom   21 type  1   force =     0.00000000    0.00000000    0.00000000
     atom   22 type  1   force =     0.00000000    0.00000000    0.00000000
     atom   23 type  1   force =     0.00000000    0.00000000    0.00000000
     atom   24 type  1   force =     0.00000000    0.00000000    0.00000000
     atom   25 type  1   force =     0.00000000    0.00000000    0.00000000
     atom   26 type  1   force =     0.00000000    0.00000000    0.00000000
     atom   27 type  1   force =     0.00000000    0.00000000    0.00000000
     atom   28 type  1   force =     0.00000000    0.00000000    0.00000000
     atom   29 type  1   force =     0.00000000    0.00000000    0.00000000
     atom   30 type  1   force =     0.00000000    0.00000000    0.00000000
     atom   31 type  1   force =     0.00000000    0.00000000    0.00000000
     atom   32 type  1   force =     0.00000000    0.00000000    0.00000000
     atom   33 type  1   force =     0.00000000    0.00000000    0.00000000
     atom   34 type  1   force =     0.00000000    0.00000000    0.00000000
     atom   35 type  1   force =     0.00000000    0.00000000    0.00000000
     atom   36 type  1   force =     0.00000000    0.00000000    0.00000000
     The SCF correction term to forces
     atom    1 type  1   force =     0.00000000    0.00000000    0.00000000
     atom    2 type  1   force =     0.00000000    0.00000000    0.00000000
     atom    3 type  1   force =     0.00000000    0.00000000    0.00000000
     atom    4 type  1   force =     0.00000000    0.00000000    0.00000000
     atom    5 type  1   force =     0.00000000    0.00000000    0.00000000
     atom    6 type  1   force =     0.00000000    0.00000000    0.00000000
     atom    7 type  1   force =     0.00000000    0.00000000    0.00000000
     atom    8 type  1   force =     0.00000000    0.00000000    0.00000000
     atom    9 type  1   force =     0.00000000    0.00000000    0.00000000
     atom   10 type  1   force =     0.00000000    0.00000000   -0.00000059
     atom   11 type  1   force =     0.00000000   -0.00000000   -0.00000059
     atom   12 type  1   force =    -0.00000000    0.00000000   -0.00000059
     atom   13 type  1   force =    -0.00000000    0.00000000   -0.00000059
     atom   14 type  1   force =     0.00000000    0.00000000   -0.00000059
     atom   15 type  1   force =     0.00000000    0.00000000   -0.00000058
     atom   16 type  1   force =    -0.00000000   -0.00000000   -0.00000059
     atom   17 type  1   force =     0.00000000   -0.00000000   -0.00000058
     atom   18 type  1   force =    -0.00000000   -0.00000000   -0.00000058
     atom   19 type  1   force =     0.00000000   -0.00000000   -0.00000007
     atom   20 type  1   force =     0.00000000    0.00000000   -0.00000006
     atom   21 type  1   force =    -0.00000000    0.00000000   -0.00000006
     atom   22 type  1   force =    -0.00000000    0.00000000   -0.00000007
     atom   23 type  1   force =    -0.00000000   -0.00000000   -0.00000006
     atom   24 type  1   force =     0.00000000    0.00000000   -0.00000007
     atom   25 type  1   force =     0.00000000    0.00000000   -0.00000007
     atom   26 type  1   force =    -0.00000000    0.00000000   -0.00000007
     atom   27 type  1   force =     0.00000000   -0.00000000   -0.00000007
     atom   28 type  1   force =    -0.00000000    0.00000000   -0.00000039
     atom   29 type  1   force =    -0.00000000    0.00000000   -0.00000039
     atom   30 type  1   force =     0.00000000    0.00000000   -0.00000039
     atom   31 type  1   force =     0.00000000   -0.00000000   -0.00000039
     atom   32 type  1   force =     0.00000000   -0.00000000   -0.00000039
     atom   33 type  1   force =    -0.00000000   -0.00000000   -0.00000039
     atom   34 type  1   force =     0.00000000   -0.00000000   -0.00000039
     atom   35 type  1   force =    -0.00000000   -0.00000000   -0.00000039
     atom   36 type  1   force =     0.00000000   -0.00000000   -0.00000039

     Total force =     0.001017     Total SCF correction =     0.000002
     Message from routine bfgs:
     history already reset at previous step: exiting
     Energy error            =      2.5E-06 Ry
     Gradient error          =      2.4E-04 Ry/Bohr

     bfgs failed after  19 scf cycles and  15 bfgs steps, convergence not achieved
     (criteria: energy <  7.3E-07 Ry, force <  3.9E-04 Ry/Bohr)

     End of BFGS Geometry Optimization

     Final energy             =   -7839.3442157017 Ry

     File tmp/Cu-1200-7.750918200505966.bfgs deleted, as requested
Begin final coordinates

ATOMIC_POSITIONS (angstrom)
Cu            0.0000000000        0.0000000000       -6.3635888363    0   0   0
Cu            2.5836394002        0.0000000000       -6.3635888363    0   0   0
Cu            5.1672788003        0.0000000000       -6.3635888363    0   0   0
Cu            1.2918197001        2.2374973548       -6.3635888363    0   0   0
Cu            3.8754591003        2.2374973548       -6.3635888363    0   0   0
Cu            6.4590985004        2.2374973548       -6.3635888363    0   0   0
Cu            2.5836394002        4.4749947095       -6.3635888363    0   0   0
Cu            5.1672788003        4.4749947095       -6.3635888363    0   0   0
Cu            7.7509182005        4.4749947095       -6.3635888363    0   0   0
Cu            1.2918196999        0.7458324515       -4.2768359002
Cu            3.8754591003        0.7458324537       -4.2768359004
Cu            6.4590985006        0.7458324515       -4.2768359002
Cu            2.5836394020        2.9833298053       -4.2768359004
Cu            5.1672787985        2.9833298053       -4.2768359004
Cu            7.7509182005        2.9833298102       -4.2768358977
Cu            3.8754591003        5.2208271613       -4.2768359002
Cu            6.4590985037        5.2208271592       -4.2768358977
Cu            9.0427378973        5.2208271592       -4.2768358977
Cu           -0.0000000000        1.4916649036       -2.1892116060
Cu            2.5836394019        1.4916649042       -2.1892116189
Cu            5.1672787986        1.4916649042       -2.1892116189
Cu            1.2918197012        3.7291622573       -2.1892116119
Cu            3.8754591003        3.7291622559       -2.1892116189
Cu            6.4590984993        3.7291622573       -2.1892116119
Cu            2.5836393999        5.9666596125       -2.1892116060
Cu            5.1672788006        5.9666596125       -2.1892116060
Cu            7.7509182005        5.9666596140       -2.1892116119
Cu            0.0000000000       -0.0000000000       -0.1010978071
Cu            2.5836393978       -0.0000000029       -0.1010978050
Cu            5.1672788027       -0.0000000029       -0.1010978050
Cu            1.2918196964        2.2374973542       -0.1010978050
Cu            3.8754591003        2.2374973548       -0.1010978059
Cu            6.4590985041        2.2374973542       -0.1010978050
Cu            2.5836393989        4.4749947130       -0.1010978050
Cu            5.1672788016        4.4749947130       -0.1010978050
Cu            7.7509182005        4.4749947095       -0.1010978078
End final coordinates

     Writing all to output data dir tmp/Cu-1200-7.750918200505966.save/

     General routines

     Parallel routines

     PAW routines

   This run was terminated on:   5:22:33  12Jun2024

   JOB DONE.