     Program PWSCF v.7.2 starts on 11Jun2024 at 14:48:59

     Reading input from Cu-650-7.700530414745783.pwi
Warning: card &CELL ignored
Warning: card / ignored

     Current dimensions of program PWSCF are:
     Max number of different atomic species (ntypx) = 10
     Max number of k-points (npk) =  40000
     Max angular momentum in pseudopotentials (lmaxx) =  4
     file Cu.beef-dn-kjpaw_psl.1.0.0.UPF: wavefunction(s)  4S 3D renormalized

     IMPORTANT: XC functional enforced from input :
     Exchange-correlation= BEEF-VDW
                           (   1   4  43  14   2   0   0)
     Any further DFT definition will be discarded
     Please, verify this is what you really want

     Found identity + (  0.3333  0.0000  0.0000) symmetry
     This is a supercell, fractional translations are disabled
     Message from routine setup:
     using ibrav=0 with symmetry is DISCOURAGED, use correct ibrav instead

     K-points division:     npool     =       2
     R & G space division:  proc/nbgrp/npool/nimage =      64
     Subspace diagonalization in iterative solution of the eigenvalue problem:
     one sub-group per band group will be used

     Using Slab Decomposition

     Title:
     Cu-650-7.700530414745783

     bravais-lattice index     =            0
     lattice parameter (alat)  =      14.5519  a.u.
     unit-cell volume          =    7377.2125 (a.u.)^3
     number of atoms/cell      =           36
     number of atomic types    =            1
     number of electrons       =       396.00
     number of Kohn-Sham states=          238
     kinetic-energy cutoff     =      47.7741  Ry
     charge density cutoff     =     477.7412  Ry
     scf convergence threshold =      7.3E-12
     mixing beta               =       0.3333
     number of iterations used =           12  local-TF  mixing
     energy convergence thresh.=      7.3E-07
     force convergence thresh. =      3.9E-04
     Exchange-correlation= BEEF-VDW
                           (   1   4  43  14   2   0   0)
     nstep                     =           50

     Effective Screening Medium Method
     Boundary Conditions: Vacuum-Slab-Metal
     total charge in unit cell        =   0.0000
     grid points for fit at edges     =        4

     celldm(1)=  14.551893  celldm(2)=   0.000000  celldm(3)=   0.000000
     celldm(4)=   0.000000  celldm(5)=   0.000000  celldm(6)=   0.000000

     crystal axes: (cart. coord. in units of alat)
               a(1) = (   1.000000   0.000000   0.000000 )
               a(2) = (   0.500000   0.866025   0.000000 )
               a(3) = (   0.000000   0.000000   2.764414 )

     reciprocal axes: (cart. coord. in units 2 pi/alat)
               b(1) = (  1.000000 -0.577350  0.000000 )
               b(2) = (  0.000000  1.154701  0.000000 )
               b(3) = (  0.000000  0.000000  0.361740 )

     PseudoPot. # 1 for Cu read from file:
     /home/k0227/k022716/QE/pseudo/beef/Cu.beef-dn-kjpaw_psl.1.0.0.UPF
     MD5 check sum: 5c2e06f1363dd15696904a521997ce16
     Pseudo is Projector augmented-wave + core cor, Zval = 11.0
     Generated using 'atomic' code by A. Dal Corso  v.7.2
     Shape of augmentation charge: PSQ
     Using radial grid of 1199 points,  6 beta functions with:
                l(1) =   0
                l(2) =   0
                l(3) =   1
                l(4) =   1
                l(5) =   2
                l(6) =   2
     Q(r) pseudized with 0 coefficients

     atomic species   valence    mass     pseudopotential
        Cu            11.00    63.54600     Cu( 1.00)

      6 Sym. Ops. (no inversion) found

                                    s                        frac. trans.

      isym =  1     identity

 cryst.   s( 1) = (     1          0          0      )
                  (     0          1          0      )
                  (     0          0          1      )

 cart.    s( 1) = (  1.0000000  0.0000000  0.0000000 )
                  (  0.0000000  1.0000000  0.0000000 )
                  (  0.0000000  0.0000000  1.0000000 )

      isym =  2     120 deg rotation - cryst. axis [0,0,1]

[...]

      isym =  3     120 deg rotation - cryst. axis [0,0,-1]

[...]

      isym =  4     inv. 180 deg rotation - cart. axis [1,0,0]

[...]

      isym =  5     inv. 180 deg rotation - cryst. axis [0,1,0]

[...]

      isym =  6     inv. 180 deg rotation - cryst. axis [1,1,0]

 cryst.   s( 6) = (     1         -1          0      )
                  (     0         -1          0      )
                  (     0          0          1      )

 cart.    s( 6) = (  0.5000000 -0.8660254  0.0000000 )
                  ( -0.8660254 -0.5000000  0.0000000 )
                  (  0.0000000  0.0000000  1.0000000 )

   Cartesian axes

     site n.     atom                  positions (alat units)
         1           Cu  tau(   1) = (   0.0000000   0.0000000  -0.8229104  )
         2           Cu  tau(   2) = (   0.3333333   0.0000000  -0.8229104  )
         3           Cu  tau(   3) = (   0.6666667   0.0000000  -0.8229104  )
         4           Cu  tau(   4) = (   0.1666667   0.2886751  -0.8229104  )
         5           Cu  tau(   5) = (   0.5000000   0.2886751  -0.8229104  )
         6           Cu  tau(   6) = (   0.8333333   0.2886751  -0.8229104  )
         7           Cu  tau(   7) = (   0.3333333   0.5773503  -0.8229104  )
         8           Cu  tau(   8) = (   0.6666667   0.5773503  -0.8229104  )
         9           Cu  tau(   9) = (   1.0000000   0.5773503  -0.8229104  )
        10           Cu  tau(  10) = (   0.1666667   0.0962250  -0.5507449  )
        11           Cu  tau(  11) = (   0.5000000   0.0962250  -0.5507449  )
        12           Cu  tau(  12) = (   0.8333333   0.0962250  -0.5507449  )
        13           Cu  tau(  13) = (   0.3333333   0.3849002  -0.5507449  )
        14           Cu  tau(  14) = (   0.6666667   0.3849002  -0.5507449  )
        15           Cu  tau(  15) = (   1.0000000   0.3849002  -0.5507449  )
        16           Cu  tau(  16) = (   0.5000000   0.6735753  -0.5507449  )
        17           Cu  tau(  17) = (   0.8333333   0.6735753  -0.5507449  )
        18           Cu  tau(  18) = (   1.1666667   0.6735753  -0.5507449  )
        19           Cu  tau(  19) = (   0.0000000   0.1924501  -0.2785794  )
        20           Cu  tau(  20) = (   0.3333333   0.1924501  -0.2785794  )
        21           Cu  tau(  21) = (   0.6666667   0.1924501  -0.2785794  )
        22           Cu  tau(  22) = (   0.1666667   0.4811252  -0.2785794  )
        23           Cu  tau(  23) = (   0.5000000   0.4811252  -0.2785794  )
        24           Cu  tau(  24) = (   0.8333333   0.4811252  -0.2785794  )
        25           Cu  tau(  25) = (   0.3333333   0.7698004  -0.2785794  )
        26           Cu  tau(  26) = (   0.6666667   0.7698004  -0.2785794  )
        27           Cu  tau(  27) = (   1.0000000   0.7698004  -0.2785794  )
        28           Cu  tau(  28) = (   0.0000000   0.0000000  -0.0064139  )
        29           Cu  tau(  29) = (   0.3333333   0.0000000  -0.0064139  )
        30           Cu  tau(  30) = (   0.6666667   0.0000000  -0.0064139  )
        31           Cu  tau(  31) = (   0.1666667   0.2886751  -0.0064139  )
        32           Cu  tau(  32) = (   0.5000000   0.2886751  -0.0064139  )
        33           Cu  tau(  33) = (   0.8333333   0.2886751  -0.0064139  )
        34           Cu  tau(  34) = (   0.3333333   0.5773503  -0.0064139  )
        35           Cu  tau(  35) = (   0.6666667   0.5773503  -0.0064139  )
        36           Cu  tau(  36) = (   1.0000000   0.5773503  -0.0064139  )

   Crystallographic axes

     site n.     atom                  positions (cryst. coord.)
         1           Cu  tau(   1) = (  0.0000000  0.0000000 -0.2976798  )
         2           Cu  tau(   2) = (  0.3333333  0.0000000 -0.2976798  )
         3           Cu  tau(   3) = (  0.6666667  0.0000000 -0.2976798  )
         4           Cu  tau(   4) = (  0.0000000  0.3333333 -0.2976798  )
         5           Cu  tau(   5) = (  0.3333333  0.3333333 -0.2976798  )
         6           Cu  tau(   6) = (  0.6666667  0.3333333 -0.2976798  )
         7           Cu  tau(   7) = ( -0.0000000  0.6666667 -0.2976798  )
         8           Cu  tau(   8) = (  0.3333333  0.6666667 -0.2976798  )
         9           Cu  tau(   9) = (  0.6666667  0.6666667 -0.2976798  )
        10           Cu  tau(  10) = (  0.1111111  0.1111111 -0.1992266  )
        11           Cu  tau(  11) = (  0.4444444  0.1111111 -0.1992266  )
        12           Cu  tau(  12) = (  0.7777778  0.1111111 -0.1992266  )
        13           Cu  tau(  13) = (  0.1111111  0.4444444 -0.1992266  )
        14           Cu  tau(  14) = (  0.4444444  0.4444444 -0.1992266  )
        15           Cu  tau(  15) = (  0.7777778  0.4444444 -0.1992266  )
        16           Cu  tau(  16) = (  0.1111111  0.7777778 -0.1992266  )
        17           Cu  tau(  17) = (  0.4444444  0.7777778 -0.1992266  )
        18           Cu  tau(  18) = (  0.7777778  0.7777778 -0.1992266  )
        19           Cu  tau(  19) = ( -0.1111111  0.2222222 -0.1007734  )
        20           Cu  tau(  20) = (  0.2222222  0.2222222 -0.1007734  )
        21           Cu  tau(  21) = (  0.5555556  0.2222222 -0.1007734  )
        22           Cu  tau(  22) = ( -0.1111111  0.5555556 -0.1007734  )
        23           Cu  tau(  23) = (  0.2222222  0.5555556 -0.1007734  )
        24           Cu  tau(  24) = (  0.5555556  0.5555556 -0.1007734  )
        25           Cu  tau(  25) = ( -0.1111111  0.8888889 -0.1007734  )
        26           Cu  tau(  26) = (  0.2222222  0.8888889 -0.1007734  )
        27           Cu  tau(  27) = (  0.5555556  0.8888889 -0.1007734  )
        28           Cu  tau(  28) = (  0.0000000  0.0000000 -0.0023202  )
        29           Cu  tau(  29) = (  0.3333333  0.0000000 -0.0023202  )
        30           Cu  tau(  30) = (  0.6666667  0.0000000 -0.0023202  )
        31           Cu  tau(  31) = (  0.0000000  0.3333333 -0.0023202  )
        32           Cu  tau(  32) = (  0.3333333  0.3333333 -0.0023202  )
        33           Cu  tau(  33) = (  0.6666667  0.3333333 -0.0023202  )
        34           Cu  tau(  34) = ( -0.0000000  0.6666667 -0.0023202  )
        35           Cu  tau(  35) = (  0.3333333  0.6666667 -0.0023202  )
        36           Cu  tau(  36) = (  0.6666667  0.6666667 -0.0023202  )

     number of k points=    10  Marzari-Vanderbilt smearing, width (Ry)=  0.0073
                       cart. coord. in units 2pi/alat
        k(    1) = (   0.0000000   0.0000000   0.0000000), wk =   0.0312500
        k(    2) = (   0.0000000   0.1443376   0.0000000), wk =   0.1875000
        k(    3) = (   0.0000000   0.2886751   0.0000000), wk =   0.1875000
        k(    4) = (   0.0000000   0.4330127   0.0000000), wk =   0.1875000
        k(    5) = (   0.0000000  -0.5773503   0.0000000), wk =   0.0937500
        k(    6) = (   0.1250000   0.2165064   0.0000000), wk =   0.1875000
        k(    7) = (   0.1250000   0.3608439   0.0000000), wk =   0.3750000
        k(    8) = (   0.1250000  -0.6495191   0.0000000), wk =   0.3750000
[...]
     atom    5 type  1   force =    -0.00000000    0.00000000   75.20861725
     atom    6 type  1   force =    -0.00000000    0.00000000   75.20861725
     atom    7 type  1   force =    -0.00000000   -0.00000000   75.20861725
     atom    8 type  1   force =    -0.00000000   -0.00000000   75.20861725
     atom    9 type  1   force =     0.00000000   -0.00000000   75.20861725
     atom   10 type  1   force =     0.00000000    0.00000000  223.86822612
     atom   11 type  1   force =     0.00000000    0.00000000  223.86822612
     atom   12 type  1   force =    -0.00000000    0.00000000  223.86822612
     atom   13 type  1   force =    -0.00000000   -0.00000000  223.86822612
     atom   14 type  1   force =    -0.00000000   -0.00000000  223.86822612
     atom   15 type  1   force =     0.00000000   -0.00000000  223.86822612
     atom   16 type  1   force =    -0.00000000   -0.00000000  223.86822612
     atom   17 type  1   force =    -0.00000000    0.00000000  223.86822612
     atom   18 type  1   force =     0.00000000   -0.00000000  223.86822612
     atom   19 type  1   force =     0.00000000   -0.00000000  373.10944020
     atom   20 type  1   force =     0.00000000    0.00000000  373.10944020
     atom   21 type  1   force =    -0.00000000   -0.00000000  373.10944020
     atom   22 type  1   force =     0.00000000   -0.00000000  373.10944020
     atom   23 type  1   force =    -0.00000000   -0.00000000  373.10944020
     atom   24 type  1   force =    -0.00000000   -0.00000000  373.10944020
     atom   25 type  1   force =    -0.00000000    0.00000000  373.10944020
     atom   26 type  1   force =    -0.00000000    0.00000000  373.10944020
     atom   27 type  1   force =     0.00000000    0.00000000  373.10944020
     atom   28 type  1   force =     0.00000000    0.00000000  521.76904907
     atom   29 type  1   force =     0.00000000    0.00000000  521.76904907
     atom   30 type  1   force =    -0.00000000    0.00000000  521.76904907
     atom   31 type  1   force =     0.00000000    0.00000000  521.76904907
     atom   32 type  1   force =    -0.00000000    0.00000000  521.76904907
     atom   33 type  1   force =    -0.00000000    0.00000000  521.76904907
     atom   34 type  1   force =    -0.00000000   -0.00000000  521.76904907
     atom   35 type  1   force =    -0.00000000   -0.00000000  521.76904907
     atom   36 type  1   force =     0.00000000   -0.00000000  521.76904907
     The local contribution  to forces
     atom    1 type  1   force =    -0.00000000    0.00000000  -75.10504252
     atom    2 type  1   force =    -0.00000000    0.00000000  -75.10504250
     atom    3 type  1   force =    -0.00000001    0.00000000  -75.10504250
     atom    4 type  1   force =     0.00000000    0.00000001  -75.10504250
     atom    5 type  1   force =    -0.00000001    0.00000001  -75.10504249
     atom    6 type  1   force =    -0.00000001    0.00000001  -75.10504250
     atom    7 type  1   force =    -0.00000000   -0.00000001  -75.10504250
     atom    8 type  1   force =    -0.00000001   -0.00000001  -75.10504250
     atom    9 type  1   force =     0.00000001   -0.00000001  -75.10504250
     atom   10 type  1   force =     0.00000001    0.00000002 -223.84380866
     atom   11 type  1   force =    -0.00000001    0.00000001 -223.84380865
     atom   12 type  1   force =    -0.00000002    0.00000002 -223.84380866
     atom   13 type  1   force =    -0.00000000   -0.00000001 -223.84380865
     atom   14 type  1   force =    -0.00000001   -0.00000001 -223.84380865
     atom   15 type  1   force =     0.00000001    0.00000001 -223.84380865
     atom   16 type  1   force =    -0.00000001   -0.00000002 -223.84380866
     atom   17 type  1   force =     0.00000000   -0.00000001 -223.84380865
     atom   18 type  1   force =    -0.00000000   -0.00000001 -223.84380865
     atom   19 type  1   force =     0.00000000    0.00000002 -373.13404406
     atom   20 type  1   force =     0.00000001    0.00000000 -373.13404408
     atom   21 type  1   force =    -0.00000002    0.00000000 -373.13404408
     atom   22 type  1   force =     0.00000000    0.00000000 -373.13404408
     atom   23 type  1   force =    -0.00000001   -0.00000001 -373.13404408
     atom   24 type  1   force =    -0.00000001    0.00000000 -373.13404408
     atom   25 type  1   force =    -0.00000002   -0.00000000 -373.13404406
     atom   26 type  1   force =     0.00000001   -0.00000000 -373.13404406
     atom   27 type  1   force =     0.00000001    0.00000001 -373.13404408
     atom   28 type  1   force =     0.00000000    0.00000000 -521.87285099
     atom   29 type  1   force =    -0.00000000    0.00000000 -521.87285100
     atom   30 type  1   force =    -0.00000001    0.00000000 -521.87285100
     atom   31 type  1   force =    -0.00000000    0.00000000 -521.87285100
     atom   32 type  1   force =    -0.00000001    0.00000001 -521.87285100
     atom   33 type  1   force =    -0.00000001    0.00000000 -521.87285100
     atom   34 type  1   force =    -0.00000000   -0.00000001 -521.87285100
     atom   35 type  1   force =    -0.00000001   -0.00000001 -521.87285100
     atom   36 type  1   force =     0.00000001   -0.00000001 -521.87285100
     The core correction contribution to forces
     atom    1 type  1   force =     0.00000000   -0.00000000    0.01645320
     atom    2 type  1   force =    -0.00000000   -0.00000000    0.01645320
     atom    3 type  1   force =    -0.00000000   -0.00000000    0.01645320
     atom    4 type  1   force =    -0.00000000    0.00000000    0.01645320
     atom    5 type  1   force =    -0.00000000    0.00000000    0.01645320
     atom    6 type  1   force =    -0.00000000    0.00000000    0.01645320
     atom    7 type  1   force =    -0.00000000   -0.00000000    0.01645320
     atom    8 type  1   force =    -0.00000000   -0.00000000    0.01645320
     atom    9 type  1   force =     0.00000000   -0.00000000    0.01645320
     atom   10 type  1   force =    -0.00000000    0.00000000   -0.00045554
     atom   11 type  1   force =    -0.00000000    0.00000000   -0.00045554
     atom   12 type  1   force =    -0.00000000    0.00000000   -0.00045554
     atom   13 type  1   force =    -0.00000000   -0.00000000   -0.00045554
     atom   14 type  1   force =    -0.00000000   -0.00000000   -0.00045554
     atom   15 type  1   force =     0.00000000    0.00000000   -0.00045554
     atom   16 type  1   force =    -0.00000000    0.00000000   -0.00045554
     atom   17 type  1   force =    -0.00000000   -0.00000000   -0.00045554
     atom   18 type  1   force =     0.00000000   -0.00000000   -0.00045554
     atom   19 type  1   force =    -0.00000000    0.00000000    0.00044946
     atom   20 type  1   force =    -0.00000000   -0.00000000    0.00044946
     atom   21 type  1   force =    -0.00000000   -0.00000000    0.00044946
     atom   22 type  1   force =    -0.00000000    0.00000000    0.00044946
     atom   23 type  1   force =    -0.00000000    0.00000000    0.00044946
     atom   24 type  1   force =    -0.00000000    0.00000000    0.00044946
     atom   25 type  1   force =    -0.00000000    0.00000000    0.00044946
     atom   26 type  1   force =    -0.00000000    0.00000000    0.00044946
     atom   27 type  1   force =     0.00000000    0.00000000    0.00044946
     atom   28 type  1   force =    -0.00000000    0.00000000   -0.01642810
     atom   29 type  1   force =    -0.00000000   -0.00000000   -0.01642810
     atom   30 type  1   force =    -0.00000000   -0.00000000   -0.01642810
     atom   31 type  1   force =    -0.00000000    0.00000000   -0.01642810
     atom   32 type  1   force =    -0.00000000    0.00000000   -0.01642810
     atom   33 type  1   force =    -0.00000000    0.00000000   -0.01642810
     atom   34 type  1   force =    -0.00000000   -0.00000000   -0.01642810
     atom   35 type  1   force =    -0.00000000   -0.00000000   -0.01642810
     atom   36 type  1   force =     0.00000000   -0.00000000   -0.01642810
     The Hubbard contrib.    to forces
     atom    1 type  1   force =     0.00000000    0.00000000    0.00000000
     atom    2 type  1   force =     0.00000000    0.00000000    0.00000000
     atom    3 type  1   force =     0.00000000    0.00000000    0.00000000
     atom    4 type  1   force =     0.00000000    0.00000000    0.00000000
     atom    5 type  1   force =     0.00000000    0.00000000    0.00000000
     atom    6 type  1   force =     0.00000000    0.00000000    0.00000000
     atom    7 type  1   force =     0.00000000    0.00000000    0.00000000
     atom    8 type  1   force =     0.00000000    0.00000000    0.00000000
     atom    9 type  1   force =     0.00000000    0.00000000    0.00000000
     atom   10 type  1   force =     0.00000000    0.00000000    0.00000000
     atom   11 type  1   force =     0.00000000    0.00000000    0.00000000
     atom   12 type  1   force =     0.00000000    0.00000000    0.00000000
     atom   13 type  1   force =     0.00000000    0.00000000    0.00000000
     atom   14 type  1   force =     0.00000000    0.00000000    0.00000000
     atom   15 type  1   force =     0.00000000    0.00000000    0.00000000
     atom   16 type  1   force =     0.00000000    0.00000000    0.00000000
     atom   17 type  1   force =     0.00000000    0.00000000    0.00000000
     atom   18 type  1   force =     0.00000000    0.00000000    0.00000000
     atom   19 type  1   force =     0.00000000    0.00000000    0.00000000
     atom   20 type  1   force =     0.00000000    0.00000000    0.00000000
     atom   21 type  1   force =     0.00000000    0.00000000    0.00000000
     atom   22 type  1   force =     0.00000000    0.00000000    0.00000000
     atom   23 type  1   force =     0.00000000    0.00000000    0.00000000
     atom   24 type  1   force =     0.00000000    0.00000000    0.00000000
     atom   25 type  1   force =     0.00000000    0.00000000    0.00000000
     atom   26 type  1   force =     0.00000000    0.00000000    0.00000000
     atom   27 type  1   force =     0.00000000    0.00000000    0.00000000
     atom   28 type  1   force =     0.00000000    0.00000000    0.00000000
     atom   29 type  1   force =     0.00000000    0.00000000    0.00000000
     atom   30 type  1   force =     0.00000000    0.00000000    0.00000000
     atom   31 type  1   force =     0.00000000    0.00000000    0.00000000
     atom   32 type  1   force =     0.00000000    0.00000000    0.00000000
     atom   33 type  1   force =     0.00000000    0.00000000    0.00000000
     atom   34 type  1   force =     0.00000000    0.00000000    0.00000000
     atom   35 type  1   force =     0.00000000    0.00000000    0.00000000
     atom   36 type  1   force =     0.00000000    0.00000000    0.00000000
     The SCF correction term to forces
     atom    1 type  1   force =     0.00000000    0.00000000    0.00000000
     atom    2 type  1   force =     0.00000000    0.00000000    0.00000000
     atom    3 type  1   force =     0.00000000    0.00000000    0.00000000
     atom    4 type  1   force =     0.00000000    0.00000000    0.00000000
     atom    5 type  1   force =     0.00000000    0.00000000    0.00000000
     atom    6 type  1   force =     0.00000000    0.00000000    0.00000000
     atom    7 type  1   force =     0.00000000    0.00000000    0.00000000
     atom    8 type  1   force =     0.00000000    0.00000000    0.00000000
     atom    9 type  1   force =     0.00000000    0.00000000    0.00000000
     atom   10 type  1   force =    -0.00000003   -0.00000002   -0.00000132
     atom   11 type  1   force =     0.00000000   -0.00000002   -0.00000133
     atom   12 type  1   force =     0.00000003   -0.00000002   -0.00000132
     atom   13 type  1   force =    -0.00000001    0.00000001   -0.00000133
     atom   14 type  1   force =     0.00000001    0.00000001   -0.00000133
     atom   15 type  1   force =    -0.00000000   -0.00000001   -0.00000132
     atom   16 type  1   force =     0.00000000    0.00000003   -0.00000132
     atom   17 type  1   force =    -0.00000001    0.00000000   -0.00000132
     atom   18 type  1   force =     0.00000001    0.00000000   -0.00000132
     atom   19 type  1   force =    -0.00000000   -0.00000002    0.00000033
     atom   20 type  1   force =    -0.00000001   -0.00000001    0.00000035
     atom   21 type  1   force =     0.00000001   -0.00000001    0.00000035
     atom   22 type  1   force =    -0.00000001    0.00000001    0.00000035
     atom   23 type  1   force =     0.00000000    0.00000002    0.00000035
     atom   24 type  1   force =     0.00000001    0.00000001    0.00000035
     atom   25 type  1   force =     0.00000002    0.00000001    0.00000033
     atom   26 type  1   force =    -0.00000002    0.00000001    0.00000033
     atom   27 type  1   force =    -0.00000000   -0.00000001    0.00000035
     atom   28 type  1   force =    -0.00000000    0.00000000   -0.00000081
     atom   29 type  1   force =    -0.00000000   -0.00000001   -0.00000082
     atom   30 type  1   force =     0.00000000   -0.00000001   -0.00000082
     atom   31 type  1   force =    -0.00000001   -0.00000000   -0.00000082
     atom   32 type  1   force =     0.00000000   -0.00000000   -0.00000081
     atom   33 type  1   force =     0.00000001   -0.00000000   -0.00000082
     atom   34 type  1   force =    -0.00000000    0.00000001   -0.00000082
     atom   35 type  1   force =     0.00000000    0.00000001   -0.00000082
     atom   36 type  1   force =    -0.00000000   -0.00000000   -0.00000082

     Total force =     0.000869     Total SCF correction =     0.000005

     BFGS Geometry Optimization
     Energy error            =      0.0E+00 Ry
     Gradient error          =      2.5E-04 Ry/Bohr

     bfgs converged in   1 scf cycles and   0 bfgs steps
     (criteria: energy <  7.3E-07 Ry, force <  3.9E-04 Ry/Bohr)

     End of BFGS Geometry Optimization

     Final energy             =   -7839.2678272302 Ry
Begin final coordinates

ATOMIC_POSITIONS (angstrom)
Cu            0.0000000000        0.0000000000       -6.3368468907    0   0   0
Cu            2.5668434716        0.0000000000       -6.3368468907    0   0   0
Cu            5.1336869432        0.0000000000       -6.3368468907    0   0   0
Cu            1.2834217358        2.2229516539       -6.3368468907    0   0   0
Cu            3.8502652074        2.2229516539       -6.3368468907    0   0   0
Cu            6.4171086790        2.2229516539       -6.3368468907    0   0   0
Cu            2.5668434716        4.4459033079       -6.3368468907    0   0   0
Cu            5.1336869432        4.4459033079       -6.3368468907    0   0   0
Cu            7.7005304147        4.4459033079       -6.3368468907    0   0   0
Cu            1.2834217358        0.7409838846       -4.2410279724
Cu            3.8502652074        0.7409838846       -4.2410279724
Cu            6.4171086790        0.7409838846       -4.2410279724
Cu            2.5668434716        2.9639355386       -4.2410279724
Cu            5.1336869432        2.9639355386       -4.2410279724
Cu            7.7005304147        2.9639355386       -4.2410279724
Cu            3.8502652074        5.1868871925       -4.2410279724
Cu            6.4171086790        5.1868871925       -4.2410279724
Cu            8.9839521505        5.1868871925       -4.2410279724
Cu            0.0000000000        1.4819677693       -2.1452090541
Cu            2.5668434716        1.4819677693       -2.1452090541
Cu            5.1336869432        1.4819677693       -2.1452090541
Cu            1.2834217358        3.7049194232       -2.1452090541
Cu            3.8502652074        3.7049194232       -2.1452090541
Cu            6.4171086790        3.7049194232       -2.1452090541
Cu            2.5668434716        5.9278710771       -2.1452090541
Cu            5.1336869432        5.9278710771       -2.1452090541
Cu            7.7005304147        5.9278710771       -2.1452090541
Cu            0.0000000000        0.0000000000       -0.0493901358
Cu            2.5668434716        0.0000000000       -0.0493901358
Cu            5.1336869432        0.0000000000       -0.0493901358
Cu            1.2834217358        2.2229516539       -0.0493901358
Cu            3.8502652074        2.2229516539       -0.0493901358
Cu            6.4171086790        2.2229516539       -0.0493901358
Cu            2.5668434716        4.4459033079       -0.0493901358
Cu            5.1336869432        4.4459033079       -0.0493901358
Cu            7.7005304147        4.4459033079       -0.0493901358
End final coordinates

     Writing all to output data dir tmp/Cu-650-7.700530414745783.save/

     General routines

     Parallel routines

     PAW routines

   This run was terminated on:  14:57:15  11Jun2024

   JOB DONE.