     Program PWSCF v.7.2 starts on 11Jun2024 at 14:57:16

     Reading input from Cu-750-7.73091169105592.pwi
Warning: card &CELL ignored
Warning: card / ignored

     Current dimensions of program PWSCF are:
     Max number of different atomic species (ntypx) = 10
     Max number of k-points (npk) =  40000
     Max angular momentum in pseudopotentials (lmaxx) =  4
     file Cu.beef-dn-kjpaw_psl.1.0.0.UPF: wavefunction(s)  4S 3D renormalized

     IMPORTANT: XC functional enforced from input :
     Exchange-correlation= BEEF-VDW
                           (   1   4  43  14   2   0   0)
     Any further DFT definition will be discarded
     Please, verify this is what you really want

     Found identity + (  0.3333  0.0000  0.0000) symmetry
     This is a supercell, fractional translations are disabled
     Message from routine setup:
     using ibrav=0 with symmetry is DISCOURAGED, use correct ibrav instead

     K-points division:     npool     =       2
     R & G space division:  proc/nbgrp/npool/nimage =      64
     Subspace diagonalization in iterative solution of the eigenvalue problem:
     one sub-group per band group will be used

     Using Slab Decomposition

     Title:
     Cu-750-7.73091169105592

     bravais-lattice index     =            0
     lattice parameter (alat)  =      14.6093  a.u.
     unit-cell volume          =    7444.2033 (a.u.)^3
     number of atoms/cell      =           36
     number of atomic types    =            1
     number of electrons       =       396.00
     number of Kohn-Sham states=          238
     kinetic-energy cutoff     =      55.1240  Ry
     charge density cutoff     =     551.2398  Ry
     scf convergence threshold =      7.3E-12
     mixing beta               =       0.3333
     number of iterations used =           12  local-TF  mixing
     energy convergence thresh.=      7.3E-07
     force convergence thresh. =      3.9E-04
     Exchange-correlation= BEEF-VDW
                           (   1   4  43  14   2   0   0)
     nstep                     =           50

     Effective Screening Medium Method
     Boundary Conditions: Vacuum-Slab-Metal
     total charge in unit cell        =   0.0000
     grid points for fit at edges     =        4

     celldm(1)=  14.609306  celldm(2)=   0.000000  celldm(3)=   0.000000
     celldm(4)=   0.000000  celldm(5)=   0.000000  celldm(6)=   0.000000

     crystal axes: (cart. coord. in units of alat)
               a(1) = (   1.000000   0.000000   0.000000 )
               a(2) = (   0.500000   0.866025   0.000000 )
               a(3) = (   0.000000   0.000000   2.756759 )

     reciprocal axes: (cart. coord. in units 2 pi/alat)
               b(1) = (  1.000000 -0.577350  0.000000 )
               b(2) = (  0.000000  1.154701  0.000000 )
               b(3) = (  0.000000  0.000000  0.362745 )

     PseudoPot. # 1 for Cu read from file:
     /home/k0227/k022716/QE/pseudo/beef/Cu.beef-dn-kjpaw_psl.1.0.0.UPF
     MD5 check sum: 5c2e06f1363dd15696904a521997ce16
     Pseudo is Projector augmented-wave + core cor, Zval = 11.0
     Generated using 'atomic' code by A. Dal Corso  v.7.2
     Shape of augmentation charge: PSQ
     Using radial grid of 1199 points,  6 beta functions with:
                l(1) =   0
                l(2) =   0
                l(3) =   1
                l(4) =   1
                l(5) =   2
                l(6) =   2
     Q(r) pseudized with 0 coefficients

     atomic species   valence    mass     pseudopotential
        Cu            11.00    63.54600     Cu( 1.00)

      6 Sym. Ops. (no inversion) found

                                    s                        frac. trans.

      isym =  1     identity

 cryst.   s( 1) = (     1          0          0      )
                  (     0          1          0      )
                  (     0          0          1      )

 cart.    s( 1) = (  1.0000000  0.0000000  0.0000000 )
                  (  0.0000000  1.0000000  0.0000000 )
                  (  0.0000000  0.0000000  1.0000000 )

      isym =  2     120 deg rotation - cryst. axis [0,0,1]

[...]

      isym =  3     120 deg rotation - cryst. axis [0,0,-1]

[...]

      isym =  4     inv. 180 deg rotation - cart. axis [1,0,0]

[...]

      isym =  5     inv. 180 deg rotation - cryst. axis [0,1,0]

[...]

      isym =  6     inv. 180 deg rotation - cryst. axis [1,1,0]

 cryst.   s( 6) = (     1         -1          0      )
                  (     0         -1          0      )
                  (     0          0          1      )

 cart.    s( 6) = (  0.5000000 -0.8660254  0.0000000 )
                  ( -0.8660254 -0.5000000  0.0000000 )
                  (  0.0000000  0.0000000  1.0000000 )

   Cartesian axes

     site n.     atom                  positions (alat units)
         1           Cu  tau(   1) = (   0.0000000   0.0000000  -0.8217622  )
         2           Cu  tau(   2) = (   0.3333333   0.0000000  -0.8217622  )
         3           Cu  tau(   3) = (   0.6666667   0.0000000  -0.8217622  )
         4           Cu  tau(   4) = (   0.1666667   0.2886751  -0.8217622  )
         5           Cu  tau(   5) = (   0.5000000   0.2886751  -0.8217622  )
         6           Cu  tau(   6) = (   0.8333333   0.2886751  -0.8217622  )
         7           Cu  tau(   7) = (   0.3333333   0.5773503  -0.8217622  )
         8           Cu  tau(   8) = (   0.6666667   0.5773503  -0.8217622  )
         9           Cu  tau(   9) = (   1.0000000   0.5773503  -0.8217622  )
        10           Cu  tau(  10) = (   0.1666667   0.0962250  -0.5495967  )
        11           Cu  tau(  11) = (   0.5000000   0.0962250  -0.5495967  )
        12           Cu  tau(  12) = (   0.8333333   0.0962250  -0.5495967  )
        13           Cu  tau(  13) = (   0.3333333   0.3849002  -0.5495967  )
        14           Cu  tau(  14) = (   0.6666667   0.3849002  -0.5495967  )
        15           Cu  tau(  15) = (   1.0000000   0.3849002  -0.5495967  )
        16           Cu  tau(  16) = (   0.5000000   0.6735753  -0.5495967  )
        17           Cu  tau(  17) = (   0.8333333   0.6735753  -0.5495967  )
        18           Cu  tau(  18) = (   1.1666667   0.6735753  -0.5495967  )
        19           Cu  tau(  19) = (   0.0000000   0.1924501  -0.2774311  )
        20           Cu  tau(  20) = (   0.3333333   0.1924501  -0.2774311  )
        21           Cu  tau(  21) = (   0.6666667   0.1924501  -0.2774311  )
        22           Cu  tau(  22) = (   0.1666667   0.4811252  -0.2774311  )
        23           Cu  tau(  23) = (   0.5000000   0.4811252  -0.2774311  )
        24           Cu  tau(  24) = (   0.8333333   0.4811252  -0.2774311  )
        25           Cu  tau(  25) = (   0.3333333   0.7698004  -0.2774311  )
        26           Cu  tau(  26) = (   0.6666667   0.7698004  -0.2774311  )
        27           Cu  tau(  27) = (   1.0000000   0.7698004  -0.2774311  )
        28           Cu  tau(  28) = (   0.0000000   0.0000000  -0.0052656  )
        29           Cu  tau(  29) = (   0.3333333   0.0000000  -0.0052656  )
        30           Cu  tau(  30) = (   0.6666667   0.0000000  -0.0052656  )
        31           Cu  tau(  31) = (   0.1666667   0.2886751  -0.0052656  )
        32           Cu  tau(  32) = (   0.5000000   0.2886751  -0.0052656  )
        33           Cu  tau(  33) = (   0.8333333   0.2886751  -0.0052656  )
        34           Cu  tau(  34) = (   0.3333333   0.5773503  -0.0052656  )
        35           Cu  tau(  35) = (   0.6666667   0.5773503  -0.0052656  )
        36           Cu  tau(  36) = (   1.0000000   0.5773503  -0.0052656  )

   Crystallographic axes

     site n.     atom                  positions (cryst. coord.)
         1           Cu  tau(   1) = (  0.0000000  0.0000000 -0.2980899  )
         2           Cu  tau(   2) = (  0.3333333  0.0000000 -0.2980899  )
         3           Cu  tau(   3) = (  0.6666667  0.0000000 -0.2980899  )
         4           Cu  tau(   4) = ( -0.0000000  0.3333333 -0.2980899  )
         5           Cu  tau(   5) = (  0.3333333  0.3333333 -0.2980899  )
         6           Cu  tau(   6) = (  0.6666667  0.3333333 -0.2980899  )
         7           Cu  tau(   7) = (  0.0000000  0.6666667 -0.2980899  )
         8           Cu  tau(   8) = (  0.3333333  0.6666667 -0.2980899  )
         9           Cu  tau(   9) = (  0.6666667  0.6666667 -0.2980899  )
        10           Cu  tau(  10) = (  0.1111111  0.1111111 -0.1993633  )
        11           Cu  tau(  11) = (  0.4444444  0.1111111 -0.1993633  )
        12           Cu  tau(  12) = (  0.7777778  0.1111111 -0.1993633  )
        13           Cu  tau(  13) = (  0.1111111  0.4444444 -0.1993633  )
        14           Cu  tau(  14) = (  0.4444444  0.4444444 -0.1993633  )
        15           Cu  tau(  15) = (  0.7777778  0.4444444 -0.1993633  )
        16           Cu  tau(  16) = (  0.1111111  0.7777778 -0.1993633  )
        17           Cu  tau(  17) = (  0.4444444  0.7777778 -0.1993633  )
        18           Cu  tau(  18) = (  0.7777778  0.7777778 -0.1993633  )
        19           Cu  tau(  19) = ( -0.1111111  0.2222222 -0.1006367  )
        20           Cu  tau(  20) = (  0.2222222  0.2222222 -0.1006367  )
        21           Cu  tau(  21) = (  0.5555556  0.2222222 -0.1006367  )
        22           Cu  tau(  22) = ( -0.1111111  0.5555556 -0.1006367  )
        23           Cu  tau(  23) = (  0.2222222  0.5555556 -0.1006367  )
        24           Cu  tau(  24) = (  0.5555556  0.5555556 -0.1006367  )
        25           Cu  tau(  25) = ( -0.1111111  0.8888889 -0.1006367  )
        26           Cu  tau(  26) = (  0.2222222  0.8888889 -0.1006367  )
        27           Cu  tau(  27) = (  0.5555556  0.8888889 -0.1006367  )
        28           Cu  tau(  28) = (  0.0000000  0.0000000 -0.0019101  )
        29           Cu  tau(  29) = (  0.3333333  0.0000000 -0.0019101  )
        30           Cu  tau(  30) = (  0.6666667  0.0000000 -0.0019101  )
        31           Cu  tau(  31) = ( -0.0000000  0.3333333 -0.0019101  )
        32           Cu  tau(  32) = (  0.3333333  0.3333333 -0.0019101  )
        33           Cu  tau(  33) = (  0.6666667  0.3333333 -0.0019101  )
        34           Cu  tau(  34) = (  0.0000000  0.6666667 -0.0019101  )
        35           Cu  tau(  35) = (  0.3333333  0.6666667 -0.0019101  )
        36           Cu  tau(  36) = (  0.6666667  0.6666667 -0.0019101  )

     number of k points=    10  Marzari-Vanderbilt smearing, width (Ry)=  0.0073
                       cart. coord. in units 2pi/alat
        k(    1) = (   0.0000000   0.0000000   0.0000000), wk =   0.0312500
        k(    2) = (   0.0000000   0.1443376   0.0000000), wk =   0.1875000
        k(    3) = (   0.0000000   0.2886751   0.0000000), wk =   0.1875000
        k(    4) = (   0.0000000   0.4330127   0.0000000), wk =   0.1875000
        k(    5) = (   0.0000000  -0.5773503   0.0000000), wk =   0.0937500
        k(    6) = (   0.1250000   0.2165064   0.0000000), wk =   0.1875000
        k(    7) = (   0.1250000   0.3608439   0.0000000), wk =   0.3750000
        k(    8) = (   0.1250000  -0.6495191   0.0000000), wk =   0.3750000
[...]
     atom    6 type  1   force =     0.00000004   -0.00000003   74.64017298
     atom    7 type  1   force =     0.00000001    0.00000005   74.64017298
     atom    8 type  1   force =    -0.00000001    0.00000005   74.64017298
     atom    9 type  1   force =    -0.00000000    0.00000000   74.64017328
     atom   10 type  1   force =    -0.00000112   -0.00000065  222.11299533
     atom   11 type  1   force =     0.00000000    0.00000060  222.11299583
     atom   12 type  1   force =     0.00000112   -0.00000065  222.11299533
     atom   13 type  1   force =     0.00000052   -0.00000030  222.11299583
     atom   14 type  1   force =    -0.00000052   -0.00000030  222.11299583
     atom   15 type  1   force =    -0.00000000    0.00000051  222.11299539
     atom   16 type  1   force =     0.00000000    0.00000130  222.11299533
     atom   17 type  1   force =     0.00000044   -0.00000025  222.11299539
     atom   18 type  1   force =    -0.00000044   -0.00000025  222.11299539
     atom   19 type  1   force =     0.00000000   -0.00000141  370.18005515
     atom   20 type  1   force =     0.00000064    0.00000037  370.18005611
     atom   21 type  1   force =    -0.00000064    0.00000037  370.18005611
     atom   22 type  1   force =     0.00000012   -0.00000007  370.18005854
     atom   23 type  1   force =     0.00000000   -0.00000074  370.18005611
     atom   24 type  1   force =    -0.00000012   -0.00000007  370.18005854
     atom   25 type  1   force =     0.00000122    0.00000071  370.18005515
     atom   26 type  1   force =    -0.00000122    0.00000071  370.18005515
     atom   27 type  1   force =    -0.00000000    0.00000014  370.18005854
     atom   28 type  1   force =     0.00000000    0.00000000  517.65642921
     atom   29 type  1   force =    -0.00000037    0.00000077  517.65642845
     atom   30 type  1   force =     0.00000037    0.00000077  517.65642845
     atom   31 type  1   force =     0.00000048   -0.00000070  517.65642845
     atom   32 type  1   force =     0.00000000   -0.00000000  517.65643251
     atom   33 type  1   force =    -0.00000048   -0.00000070  517.65642845
     atom   34 type  1   force =     0.00000085   -0.00000006  517.65642845
     atom   35 type  1   force =    -0.00000085   -0.00000006  517.65642845
     atom   36 type  1   force =    -0.00000000    0.00000000  517.65643966
     The local contribution  to forces
     atom    1 type  1   force =     0.00000000   -0.00000000  -74.53247019
     atom    2 type  1   force =     0.00000005    0.00000001  -74.53246953
     atom    3 type  1   force =    -0.00000005    0.00000001  -74.53246953
     atom    4 type  1   force =     0.00000004    0.00000003  -74.53246953
     atom    5 type  1   force =     0.00000001   -0.00000001  -74.53246997
     atom    6 type  1   force =    -0.00000003    0.00000003  -74.53246953
     atom    7 type  1   force =    -0.00000002   -0.00000005  -74.53246953
     atom    8 type  1   force =     0.00000001   -0.00000005  -74.53246953
     atom    9 type  1   force =    -0.00000001    0.00000000  -74.53246984
     atom   10 type  1   force =     0.00000113    0.00000065 -222.08835414
     atom   11 type  1   force =     0.00000001   -0.00000060 -222.08835464
     atom   12 type  1   force =    -0.00000112    0.00000065 -222.08835414
     atom   13 type  1   force =    -0.00000053    0.00000030 -222.08835464
     atom   14 type  1   force =     0.00000052    0.00000030 -222.08835464
     atom   15 type  1   force =    -0.00000001   -0.00000052 -222.08835420
     atom   16 type  1   force =     0.00000001   -0.00000129 -222.08835414
     atom   17 type  1   force =    -0.00000044    0.00000026 -222.08835420
     atom   18 type  1   force =     0.00000044    0.00000026 -222.08835420
     atom   19 type  1   force =     0.00000000    0.00000142 -370.20484494
     atom   20 type  1   force =    -0.00000065   -0.00000036 -370.20484590
     atom   21 type  1   force =     0.00000064   -0.00000036 -370.20484590
     atom   22 type  1   force =    -0.00000011    0.00000007 -370.20484834
     atom   23 type  1   force =     0.00000001    0.00000074 -370.20484590
     atom   24 type  1   force =     0.00000012    0.00000007 -370.20484834
     atom   25 type  1   force =    -0.00000123   -0.00000070 -370.20484494
     atom   26 type  1   force =     0.00000122   -0.00000070 -370.20484494
     atom   27 type  1   force =    -0.00000001   -0.00000013 -370.20484834
     atom   28 type  1   force =     0.00000000    0.00000000 -517.76435687
     atom   29 type  1   force =     0.00000037   -0.00000077 -517.76435608
     atom   30 type  1   force =    -0.00000038   -0.00000077 -517.76435608
     atom   31 type  1   force =    -0.00000047    0.00000070 -517.76435608
     atom   32 type  1   force =     0.00000001   -0.00000001 -517.76436018
     atom   33 type  1   force =     0.00000048    0.00000070 -517.76435608
     atom   34 type  1   force =    -0.00000086    0.00000006 -517.76435608
     atom   35 type  1   force =     0.00000085    0.00000006 -517.76435608
     atom   36 type  1   force =    -0.00000001    0.00000000 -517.76436735
     The core correction contribution to forces
     atom    1 type  1   force =    -0.00000000   -0.00000000    0.01657533
     atom    2 type  1   force =    -0.00000000   -0.00000000    0.01657533
     atom    3 type  1   force =    -0.00000000   -0.00000000    0.01657533
     atom    4 type  1   force =     0.00000000   -0.00000000    0.01657533
     atom    5 type  1   force =     0.00000000   -0.00000000    0.01657533
     atom    6 type  1   force =     0.00000000   -0.00000000    0.01657533
     atom    7 type  1   force =    -0.00000000    0.00000000    0.01657533
     atom    8 type  1   force =    -0.00000000    0.00000000    0.01657533
     atom    9 type  1   force =    -0.00000000    0.00000000    0.01657533
     atom   10 type  1   force =     0.00000000    0.00000000   -0.00045442
     atom   11 type  1   force =     0.00000000   -0.00000000   -0.00045442
     atom   12 type  1   force =    -0.00000000    0.00000000   -0.00045442
     atom   13 type  1   force =    -0.00000000    0.00000000   -0.00045442
     atom   14 type  1   force =     0.00000000    0.00000000   -0.00045442
     atom   15 type  1   force =    -0.00000000   -0.00000000   -0.00045442
     atom   16 type  1   force =     0.00000000   -0.00000000   -0.00045442
     atom   17 type  1   force =    -0.00000000    0.00000000   -0.00045442
     atom   18 type  1   force =     0.00000000    0.00000000   -0.00045442
     atom   19 type  1   force =     0.00000000    0.00000000    0.00042576
     atom   20 type  1   force =    -0.00000000    0.00000000    0.00042576
     atom   21 type  1   force =     0.00000000    0.00000000    0.00042576
     atom   22 type  1   force =     0.00000000    0.00000000    0.00042576
     atom   23 type  1   force =     0.00000000    0.00000000    0.00042576
     atom   24 type  1   force =     0.00000000    0.00000000    0.00042576
     atom   25 type  1   force =    -0.00000000    0.00000000    0.00042576
     atom   26 type  1   force =     0.00000000    0.00000000    0.00042576
     atom   27 type  1   force =    -0.00000000    0.00000000    0.00042576
     atom   28 type  1   force =    -0.00000000   -0.00000000   -0.01652996
     atom   29 type  1   force =     0.00000000   -0.00000000   -0.01652996
     atom   30 type  1   force =    -0.00000000   -0.00000000   -0.01652996
     atom   31 type  1   force =     0.00000000   -0.00000000   -0.01652996
     atom   32 type  1   force =     0.00000000   -0.00000000   -0.01652996
     atom   33 type  1   force =     0.00000000   -0.00000000   -0.01652996
     atom   34 type  1   force =    -0.00000000    0.00000000   -0.01652996
     atom   35 type  1   force =     0.00000000    0.00000000   -0.01652996
     atom   36 type  1   force =    -0.00000000    0.00000000   -0.01652996
     The Hubbard contrib.    to forces
     atom    1 type  1   force =     0.00000000    0.00000000    0.00000000
     atom    2 type  1   force =     0.00000000    0.00000000    0.00000000
     atom    3 type  1   force =     0.00000000    0.00000000    0.00000000
     atom    4 type  1   force =     0.00000000    0.00000000    0.00000000
     atom    5 type  1   force =     0.00000000    0.00000000    0.00000000
     atom    6 type  1   force =     0.00000000    0.00000000    0.00000000
     atom    7 type  1   force =     0.00000000    0.00000000    0.00000000
     atom    8 type  1   force =     0.00000000    0.00000000    0.00000000
     atom    9 type  1   force =     0.00000000    0.00000000    0.00000000
     atom   10 type  1   force =     0.00000000    0.00000000    0.00000000
     atom   11 type  1   force =     0.00000000    0.00000000    0.00000000
     atom   12 type  1   force =     0.00000000    0.00000000    0.00000000
     atom   13 type  1   force =     0.00000000    0.00000000    0.00000000
     atom   14 type  1   force =     0.00000000    0.00000000    0.00000000
     atom   15 type  1   force =     0.00000000    0.00000000    0.00000000
     atom   16 type  1   force =     0.00000000    0.00000000    0.00000000
     atom   17 type  1   force =     0.00000000    0.00000000    0.00000000
     atom   18 type  1   force =     0.00000000    0.00000000    0.00000000
     atom   19 type  1   force =     0.00000000    0.00000000    0.00000000
     atom   20 type  1   force =     0.00000000    0.00000000    0.00000000
     atom   21 type  1   force =     0.00000000    0.00000000    0.00000000
     atom   22 type  1   force =     0.00000000    0.00000000    0.00000000
     atom   23 type  1   force =     0.00000000    0.00000000    0.00000000
     atom   24 type  1   force =     0.00000000    0.00000000    0.00000000
     atom   25 type  1   force =     0.00000000    0.00000000    0.00000000
     atom   26 type  1   force =     0.00000000    0.00000000    0.00000000
     atom   27 type  1   force =     0.00000000    0.00000000    0.00000000
     atom   28 type  1   force =     0.00000000    0.00000000    0.00000000
     atom   29 type  1   force =     0.00000000    0.00000000    0.00000000
     atom   30 type  1   force =     0.00000000    0.00000000    0.00000000
     atom   31 type  1   force =     0.00000000    0.00000000    0.00000000
     atom   32 type  1   force =     0.00000000    0.00000000    0.00000000
     atom   33 type  1   force =     0.00000000    0.00000000    0.00000000
     atom   34 type  1   force =     0.00000000    0.00000000    0.00000000
     atom   35 type  1   force =     0.00000000    0.00000000    0.00000000
     atom   36 type  1   force =     0.00000000    0.00000000    0.00000000
     The SCF correction term to forces
     atom    1 type  1   force =     0.00000000    0.00000000    0.00000000
     atom    2 type  1   force =     0.00000000    0.00000000    0.00000000
     atom    3 type  1   force =     0.00000000    0.00000000    0.00000000
     atom    4 type  1   force =     0.00000000    0.00000000    0.00000000
     atom    5 type  1   force =     0.00000000    0.00000000    0.00000000
     atom    6 type  1   force =     0.00000000    0.00000000    0.00000000
     atom    7 type  1   force =     0.00000000    0.00000000    0.00000000
     atom    8 type  1   force =     0.00000000    0.00000000    0.00000000
     atom    9 type  1   force =     0.00000000    0.00000000    0.00000000
     atom   10 type  1   force =    -0.00000000   -0.00000000   -0.00000006
     atom   11 type  1   force =    -0.00000000    0.00000000   -0.00000006
     atom   12 type  1   force =     0.00000000   -0.00000000   -0.00000006
     atom   13 type  1   force =     0.00000000   -0.00000000   -0.00000006
     atom   14 type  1   force =    -0.00000000   -0.00000000   -0.00000006
     atom   15 type  1   force =    -0.00000000    0.00000000   -0.00000006
     atom   16 type  1   force =     0.00000000    0.00000000   -0.00000006
     atom   17 type  1   force =     0.00000000   -0.00000000   -0.00000006
     atom   18 type  1   force =    -0.00000000   -0.00000000   -0.00000006
     atom   19 type  1   force =    -0.00000000   -0.00000000   -0.00000009
     atom   20 type  1   force =     0.00000000    0.00000000   -0.00000009
     atom   21 type  1   force =    -0.00000000    0.00000000   -0.00000009
     atom   22 type  1   force =    -0.00000000    0.00000000   -0.00000009
     atom   23 type  1   force =     0.00000000   -0.00000000   -0.00000009
     atom   24 type  1   force =     0.00000000    0.00000000   -0.00000009
     atom   25 type  1   force =     0.00000000    0.00000000   -0.00000009
     atom   26 type  1   force =    -0.00000000    0.00000000   -0.00000009
     atom   27 type  1   force =    -0.00000000   -0.00000000   -0.00000009
     atom   28 type  1   force =    -0.00000000    0.00000000   -0.00000045
     atom   29 type  1   force =    -0.00000000   -0.00000000   -0.00000045
     atom   30 type  1   force =     0.00000000   -0.00000000   -0.00000045
     atom   31 type  1   force =    -0.00000000   -0.00000000   -0.00000045
     atom   32 type  1   force =    -0.00000000    0.00000000   -0.00000045
     atom   33 type  1   force =     0.00000000   -0.00000000   -0.00000045
     atom   34 type  1   force =    -0.00000000    0.00000000   -0.00000045
     atom   35 type  1   force =     0.00000000    0.00000000   -0.00000045
     atom   36 type  1   force =     0.00000000   -0.00000000   -0.00000045

     Total force =     0.001255     Total SCF correction =     0.000001
     Energy error            =      6.7E-07 Ry
     Gradient error          =      3.0E-04 Ry/Bohr

     bfgs converged in  14 scf cycles and  13 bfgs steps
     (criteria: energy <  7.3E-07 Ry, force <  3.9E-04 Ry/Bohr)

     End of BFGS Geometry Optimization

     Final energy             =   -7839.3223282428 Ry

     File tmp/Cu-750-7.73091169105592.bfgs deleted, as requested
Begin final coordinates

ATOMIC_POSITIONS (angstrom)
Cu            0.0000000000        0.0000000000       -6.3529709261    0   0   0
Cu            2.5769705637        0.0000000000       -6.3529709261    0   0   0
Cu            5.1539411274        0.0000000000       -6.3529709261    0   0   0
Cu            1.2884852818        2.2317219730       -6.3529709261    0   0   0
Cu            3.8654558455        2.2317219730       -6.3529709261    0   0   0
Cu            6.4424264092        2.2317219730       -6.3529709261    0   0   0
Cu            2.5769705637        4.4634439459       -6.3529709261    0   0   0
Cu            5.1539411274        4.4634439459       -6.3529709261    0   0   0
Cu            7.7309116911        4.4634439459       -6.3529709261    0   0   0
Cu            1.2884853155        0.7439073437       -4.2619618902
Cu            3.8654558455        0.7439072991       -4.2619618849
Cu            6.4424263755        0.7439073437       -4.2619618902
Cu            2.5769705418        2.9756293099       -4.2619618849
Cu            5.1539411493        2.9756293099       -4.2619618849
Cu            7.7309116911        2.9756292802       -4.2619618876
Cu            3.8654558455        5.2073512313       -4.2619618902
Cu            6.4424263944        5.2073512788       -4.2619618876
Cu            9.0193969877        5.2073512788       -4.2619618876
Cu           -0.0000000000        1.4878146799       -2.1713899494
Cu            2.5769705571        1.4878146448       -2.1713899420
Cu            5.1539411340        1.4878146448       -2.1713899420
Cu            1.2884852596        3.7195366344       -2.1713898996
Cu            3.8654558455        3.7195366293       -2.1713899420
Cu            6.4424264314        3.7195366344       -2.1713898996
Cu            2.5769705366        5.9512585788       -2.1713899494
Cu            5.1539411545        5.9512585788       -2.1713899494
Cu            7.7309116911        5.9512585688       -2.1713898996
Cu            0.0000000000       -0.0000000000       -0.0793158434
Cu            2.5769705641       -0.0000000088       -0.0793158615
Cu            5.1539411270       -0.0000000088       -0.0793158615
Cu            1.2884852744        2.2317219778       -0.0793158615
Cu            3.8654558455        2.2317219730       -0.0793157831
Cu            6.4424264166        2.2317219778       -0.0793158615
Cu            2.5769705558        4.4634439500       -0.0793158615
Cu            5.1539411353        4.4634439500       -0.0793158615
Cu            7.7309116911        4.4634439459       -0.0793156593
End final coordinates

     Writing all to output data dir tmp/Cu-750-7.73091169105592.save/

     General routines

     Parallel routines

     PAW routines

   This run was terminated on:  16:29:30  11Jun2024

   JOB DONE.