     Program PWSCF v.7.2 starts on 11Jun2024 at 16:29:34

     Reading input from Cu-850-7.746788121318915.pwi
Warning: card &CELL ignored
Warning: card / ignored

     Current dimensions of program PWSCF are:
     Max number of different atomic species (ntypx) = 10
     Max number of k-points (npk) =  40000
     Max angular momentum in pseudopotentials (lmaxx) =  4
     file Cu.beef-dn-kjpaw_psl.1.0.0.UPF: wavefunction(s)  4S 3D renormalized

     IMPORTANT: XC functional enforced from input :
     Exchange-correlation= BEEF-VDW
                           (   1   4  43  14   2   0   0)
     Any further DFT definition will be discarded
     Please, verify this is what you really want

     Found identity + (  0.3333  0.0000  0.0000) symmetry
     This is a supercell, fractional translations are disabled
     Message from routine setup:
     using ibrav=0 with symmetry is DISCOURAGED, use correct ibrav instead

     K-points division:     npool     =       2
     R & G space division:  proc/nbgrp/npool/nimage =      64
     Subspace diagonalization in iterative solution of the eigenvalue problem:
     one sub-group per band group will be used

     Using Slab Decomposition

     Title:
     Cu-850-7.746788121318915

     bravais-lattice index     =            0
     lattice parameter (alat)  =      14.6393  a.u.
     unit-cell volume          =    7479.3565 (a.u.)^3
     number of atoms/cell      =           36
     number of atomic types    =            1
     number of electrons       =       396.00
     number of Kohn-Sham states=          238
     kinetic-energy cutoff     =      62.4738  Ry
     charge density cutoff     =     624.7385  Ry
     scf convergence threshold =      7.3E-12
     mixing beta               =       0.3333
     number of iterations used =           12  local-TF  mixing
     energy convergence thresh.=      7.3E-07
     force convergence thresh. =      3.9E-04
     Exchange-correlation= BEEF-VDW
                           (   1   4  43  14   2   0   0)
     nstep                     =           50

     Effective Screening Medium Method
     Boundary Conditions: Vacuum-Slab-Metal
     total charge in unit cell        =   0.0000
     grid points for fit at edges     =        4

     celldm(1)=  14.639308  celldm(2)=   0.000000  celldm(3)=   0.000000
     celldm(4)=   0.000000  celldm(5)=   0.000000  celldm(6)=   0.000000

     crystal axes: (cart. coord. in units of alat)
               a(1) = (   1.000000   0.000000   0.000000 )
               a(2) = (   0.500000   0.866025   0.000000 )
               a(3) = (   0.000000   0.000000   2.752783 )

     reciprocal axes: (cart. coord. in units 2 pi/alat)
               b(1) = (  1.000000 -0.577350  0.000000 )
               b(2) = (  0.000000  1.154701  0.000000 )
               b(3) = (  0.000000  0.000000  0.363269 )

     PseudoPot. # 1 for Cu read from file:
     /home/k0227/k022716/QE/pseudo/beef/Cu.beef-dn-kjpaw_psl.1.0.0.UPF
     MD5 check sum: 5c2e06f1363dd15696904a521997ce16
     Pseudo is Projector augmented-wave + core cor, Zval = 11.0
     Generated using 'atomic' code by A. Dal Corso  v.7.2
     Shape of augmentation charge: PSQ
     Using radial grid of 1199 points,  6 beta functions with:
                l(1) =   0
                l(2) =   0
                l(3) =   1
                l(4) =   1
                l(5) =   2
                l(6) =   2
     Q(r) pseudized with 0 coefficients

     atomic species   valence    mass     pseudopotential
        Cu            11.00    63.54600     Cu( 1.00)

      6 Sym. Ops. (no inversion) found

                                    s                        frac. trans.

      isym =  1     identity

 cryst.   s( 1) = (     1          0          0      )
                  (     0          1          0      )
                  (     0          0          1      )

 cart.    s( 1) = (  1.0000000  0.0000000  0.0000000 )
                  (  0.0000000  1.0000000  0.0000000 )
                  (  0.0000000  0.0000000  1.0000000 )

      isym =  2     120 deg rotation - cryst. axis [0,0,1]

[...]

      isym =  3     120 deg rotation - cryst. axis [0,0,-1]

[...]

      isym =  4     inv. 180 deg rotation - cart. axis [1,0,0]

[...]

      isym =  5     inv. 180 deg rotation - cryst. axis [0,1,0]

[...]

      isym =  6     inv. 180 deg rotation - cryst. axis [1,1,0]

 cryst.   s( 6) = (     1         -1          0      )
                  (     0         -1          0      )
                  (     0          0          1      )

 cart.    s( 6) = (  0.5000000 -0.8660254  0.0000000 )
                  ( -0.8660254 -0.5000000  0.0000000 )
                  (  0.0000000  0.0000000  1.0000000 )

   Cartesian axes

     site n.     atom                  positions (alat units)
         1           Cu  tau(   1) = (   0.0000000   0.0000000  -0.8211657  )
         2           Cu  tau(   2) = (   0.3333333   0.0000000  -0.8211657  )
         3           Cu  tau(   3) = (   0.6666667   0.0000000  -0.8211657  )
         4           Cu  tau(   4) = (   0.1666667   0.2886751  -0.8211657  )
         5           Cu  tau(   5) = (   0.5000000   0.2886751  -0.8211657  )
         6           Cu  tau(   6) = (   0.8333333   0.2886751  -0.8211657  )
         7           Cu  tau(   7) = (   0.3333333   0.5773503  -0.8211657  )
         8           Cu  tau(   8) = (   0.6666667   0.5773503  -0.8211657  )
         9           Cu  tau(   9) = (   1.0000000   0.5773503  -0.8211657  )
        10           Cu  tau(  10) = (   0.1666667   0.0962250  -0.5490002  )
        11           Cu  tau(  11) = (   0.5000000   0.0962250  -0.5490002  )
        12           Cu  tau(  12) = (   0.8333333   0.0962250  -0.5490002  )
        13           Cu  tau(  13) = (   0.3333333   0.3849002  -0.5490002  )
        14           Cu  tau(  14) = (   0.6666667   0.3849002  -0.5490002  )
        15           Cu  tau(  15) = (   1.0000000   0.3849002  -0.5490002  )
        16           Cu  tau(  16) = (   0.5000000   0.6735753  -0.5490002  )
        17           Cu  tau(  17) = (   0.8333333   0.6735753  -0.5490002  )
        18           Cu  tau(  18) = (   1.1666667   0.6735753  -0.5490002  )
        19           Cu  tau(  19) = (   0.0000000   0.1924501  -0.2768347  )
        20           Cu  tau(  20) = (   0.3333333   0.1924501  -0.2768347  )
        21           Cu  tau(  21) = (   0.6666667   0.1924501  -0.2768347  )
        22           Cu  tau(  22) = (   0.1666667   0.4811252  -0.2768347  )
        23           Cu  tau(  23) = (   0.5000000   0.4811252  -0.2768347  )
        24           Cu  tau(  24) = (   0.8333333   0.4811252  -0.2768347  )
        25           Cu  tau(  25) = (   0.3333333   0.7698004  -0.2768347  )
        26           Cu  tau(  26) = (   0.6666667   0.7698004  -0.2768347  )
        27           Cu  tau(  27) = (   1.0000000   0.7698004  -0.2768347  )
        28           Cu  tau(  28) = (   0.0000000   0.0000000  -0.0046691  )
        29           Cu  tau(  29) = (   0.3333333   0.0000000  -0.0046691  )
        30           Cu  tau(  30) = (   0.6666667   0.0000000  -0.0046691  )
        31           Cu  tau(  31) = (   0.1666667   0.2886751  -0.0046691  )
        32           Cu  tau(  32) = (   0.5000000   0.2886751  -0.0046691  )
        33           Cu  tau(  33) = (   0.8333333   0.2886751  -0.0046691  )
        34           Cu  tau(  34) = (   0.3333333   0.5773503  -0.0046691  )
        35           Cu  tau(  35) = (   0.6666667   0.5773503  -0.0046691  )
        36           Cu  tau(  36) = (   1.0000000   0.5773503  -0.0046691  )

   Crystallographic axes

     site n.     atom                  positions (cryst. coord.)
         1           Cu  tau(   1) = (  0.0000000  0.0000000 -0.2983038  )
         2           Cu  tau(   2) = (  0.3333333  0.0000000 -0.2983038  )
         3           Cu  tau(   3) = (  0.6666667  0.0000000 -0.2983038  )
         4           Cu  tau(   4) = (  0.0000000  0.3333333 -0.2983038  )
         5           Cu  tau(   5) = (  0.3333333  0.3333333 -0.2983038  )
         6           Cu  tau(   6) = (  0.6666667  0.3333333 -0.2983038  )
         7           Cu  tau(   7) = ( -0.0000000  0.6666667 -0.2983038  )
         8           Cu  tau(   8) = (  0.3333333  0.6666667 -0.2983038  )
         9           Cu  tau(   9) = (  0.6666667  0.6666667 -0.2983038  )
        10           Cu  tau(  10) = (  0.1111111  0.1111111 -0.1994346  )
        11           Cu  tau(  11) = (  0.4444444  0.1111111 -0.1994346  )
        12           Cu  tau(  12) = (  0.7777778  0.1111111 -0.1994346  )
        13           Cu  tau(  13) = (  0.1111111  0.4444444 -0.1994346  )
        14           Cu  tau(  14) = (  0.4444444  0.4444444 -0.1994346  )
        15           Cu  tau(  15) = (  0.7777778  0.4444444 -0.1994346  )
        16           Cu  tau(  16) = (  0.1111111  0.7777778 -0.1994346  )
        17           Cu  tau(  17) = (  0.4444444  0.7777778 -0.1994346  )
        18           Cu  tau(  18) = (  0.7777778  0.7777778 -0.1994346  )
        19           Cu  tau(  19) = ( -0.1111111  0.2222222 -0.1005654  )
        20           Cu  tau(  20) = (  0.2222222  0.2222222 -0.1005654  )
        21           Cu  tau(  21) = (  0.5555556  0.2222222 -0.1005654  )
        22           Cu  tau(  22) = ( -0.1111111  0.5555556 -0.1005654  )
        23           Cu  tau(  23) = (  0.2222222  0.5555556 -0.1005654  )
        24           Cu  tau(  24) = (  0.5555556  0.5555556 -0.1005654  )
        25           Cu  tau(  25) = ( -0.1111111  0.8888889 -0.1005654  )
        26           Cu  tau(  26) = (  0.2222222  0.8888889 -0.1005654  )
        27           Cu  tau(  27) = (  0.5555556  0.8888889 -0.1005654  )
        28           Cu  tau(  28) = (  0.0000000  0.0000000 -0.0016962  )
        29           Cu  tau(  29) = (  0.3333333  0.0000000 -0.0016962  )
        30           Cu  tau(  30) = (  0.6666667  0.0000000 -0.0016962  )
        31           Cu  tau(  31) = (  0.0000000  0.3333333 -0.0016962  )
        32           Cu  tau(  32) = (  0.3333333  0.3333333 -0.0016962  )
        33           Cu  tau(  33) = (  0.6666667  0.3333333 -0.0016962  )
        34           Cu  tau(  34) = ( -0.0000000  0.6666667 -0.0016962  )
        35           Cu  tau(  35) = (  0.3333333  0.6666667 -0.0016962  )
        36           Cu  tau(  36) = (  0.6666667  0.6666667 -0.0016962  )

     number of k points=    10  Marzari-Vanderbilt smearing, width (Ry)=  0.0073
                       cart. coord. in units 2pi/alat
        k(    1) = (   0.0000000   0.0000000   0.0000000), wk =   0.0312500
        k(    2) = (   0.0000000   0.1443376   0.0000000), wk =   0.1875000
        k(    3) = (   0.0000000   0.2886751   0.0000000), wk =   0.1875000
        k(    4) = (   0.0000000   0.4330127   0.0000000), wk =   0.1875000
        k(    5) = (   0.0000000  -0.5773503   0.0000000), wk =   0.0937500
        k(    6) = (   0.1250000   0.2165064   0.0000000), wk =   0.1875000
        k(    7) = (   0.1250000   0.3608439   0.0000000), wk =   0.3750000
        k(    8) = (   0.1250000  -0.6495191   0.0000000), wk =   0.3750000
[...]
     atom    6 type  1   force =     0.00000001    0.00000006   74.34878296
     atom    7 type  1   force =    -0.00000006   -0.00000002   74.34878296
     atom    8 type  1   force =     0.00000006   -0.00000002   74.34878296
     atom    9 type  1   force =     0.00000000   -0.00000000   74.34878300
     atom   10 type  1   force =     0.00000033    0.00000019  221.19954841
     atom   11 type  1   force =    -0.00000000   -0.00000009  221.19954840
     atom   12 type  1   force =    -0.00000033    0.00000019  221.19954841
     atom   13 type  1   force =    -0.00000008    0.00000004  221.19954840
     atom   14 type  1   force =     0.00000008    0.00000004  221.19954840
     atom   15 type  1   force =     0.00000000    0.00000004  221.19954890
     atom   16 type  1   force =    -0.00000000   -0.00000038  221.19954841
     atom   17 type  1   force =     0.00000003   -0.00000002  221.19954890
     atom   18 type  1   force =    -0.00000003   -0.00000002  221.19954890
     atom   19 type  1   force =    -0.00000000    0.00000033  368.66799133
     atom   20 type  1   force =     0.00000021    0.00000012  368.66799082
     atom   21 type  1   force =    -0.00000021    0.00000012  368.66799082
     atom   22 type  1   force =     0.00000006   -0.00000003  368.66799146
     atom   23 type  1   force =    -0.00000000   -0.00000024  368.66799082
     atom   24 type  1   force =    -0.00000006   -0.00000003  368.66799146
     atom   25 type  1   force =    -0.00000028   -0.00000016  368.66799133
     atom   26 type  1   force =     0.00000028   -0.00000016  368.66799133
     atom   27 type  1   force =     0.00000000    0.00000007  368.66799146
     atom   28 type  1   force =    -0.00000000    0.00000000  515.52286161
     atom   29 type  1   force =     0.00000017    0.00000021  515.52286258
     atom   30 type  1   force =    -0.00000017    0.00000021  515.52286258
     atom   31 type  1   force =     0.00000027    0.00000004  515.52286258
     atom   32 type  1   force =    -0.00000000    0.00000000  515.52286135
     atom   33 type  1   force =    -0.00000027    0.00000004  515.52286258
     atom   34 type  1   force =     0.00000010   -0.00000026  515.52286258
     atom   35 type  1   force =    -0.00000010   -0.00000026  515.52286258
     atom   36 type  1   force =     0.00000000   -0.00000000  515.52286282
     The local contribution  to forces
     atom    1 type  1   force =    -0.00000000   -0.00000000  -74.23879604
     atom    2 type  1   force =    -0.00000004    0.00000004  -74.23879627
     atom    3 type  1   force =     0.00000004    0.00000004  -74.23879627
     atom    4 type  1   force =     0.00000001   -0.00000006  -74.23879627
     atom    5 type  1   force =    -0.00000001   -0.00000000  -74.23879619
     atom    6 type  1   force =    -0.00000002   -0.00000006  -74.23879627
     atom    7 type  1   force =     0.00000006    0.00000001  -74.23879627
     atom    8 type  1   force =    -0.00000005    0.00000001  -74.23879627
     atom    9 type  1   force =     0.00000000   -0.00000000  -74.23879631
     atom   10 type  1   force =    -0.00000034   -0.00000018 -221.17485599
     atom   11 type  1   force =    -0.00000001    0.00000009 -221.17485599
     atom   12 type  1   force =     0.00000032   -0.00000018 -221.17485599
     atom   13 type  1   force =     0.00000008   -0.00000004 -221.17485599
     atom   14 type  1   force =    -0.00000007   -0.00000004 -221.17485599
     atom   15 type  1   force =     0.00000000   -0.00000003 -221.17485649
     atom   16 type  1   force =    -0.00000001    0.00000039 -221.17485599
     atom   17 type  1   force =    -0.00000004    0.00000002 -221.17485649
     atom   18 type  1   force =     0.00000003    0.00000002 -221.17485649
     atom   19 type  1   force =     0.00000000   -0.00000034 -368.69283176
     atom   20 type  1   force =    -0.00000021   -0.00000013 -368.69283124
     atom   21 type  1   force =     0.00000021   -0.00000013 -368.69283124
     atom   22 type  1   force =    -0.00000007    0.00000003 -368.69283189
     atom   23 type  1   force =    -0.00000001    0.00000024 -368.69283124
     atom   24 type  1   force =     0.00000005    0.00000003 -368.69283189
     atom   25 type  1   force =     0.00000029    0.00000016 -368.69283176
     atom   26 type  1   force =    -0.00000028    0.00000016 -368.69283176
     atom   27 type  1   force =     0.00000000   -0.00000007 -368.69283189
     atom   28 type  1   force =     0.00000000    0.00000000 -515.63308054
     atom   29 type  1   force =    -0.00000017   -0.00000021 -515.63308152
     atom   30 type  1   force =     0.00000017   -0.00000021 -515.63308152
     atom   31 type  1   force =    -0.00000028   -0.00000004 -515.63308152
     atom   32 type  1   force =    -0.00000001   -0.00000000 -515.63308029
     atom   33 type  1   force =     0.00000026   -0.00000004 -515.63308152
     atom   34 type  1   force =    -0.00000010    0.00000026 -515.63308152
     atom   35 type  1   force =     0.00000010    0.00000026 -515.63308152
     atom   36 type  1   force =     0.00000000   -0.00000000 -515.63308176
     The core correction contribution to forces
     atom    1 type  1   force =     0.00000000    0.00000000    0.01669745
     atom    2 type  1   force =     0.00000000    0.00000000    0.01669745
     atom    3 type  1   force =     0.00000000    0.00000000    0.01669745
     atom    4 type  1   force =    -0.00000000   -0.00000000    0.01669745
     atom    5 type  1   force =    -0.00000000   -0.00000000    0.01669745
     atom    6 type  1   force =    -0.00000000   -0.00000000    0.01669745
     atom    7 type  1   force =     0.00000000   -0.00000000    0.01669745
     atom    8 type  1   force =     0.00000000   -0.00000000    0.01669745
     atom    9 type  1   force =     0.00000000   -0.00000000    0.01669745
     atom   10 type  1   force =    -0.00000000    0.00000000   -0.00052343
     atom   11 type  1   force =    -0.00000000    0.00000000   -0.00052343
     atom   12 type  1   force =    -0.00000000    0.00000000   -0.00052343
     atom   13 type  1   force =     0.00000000    0.00000000   -0.00052343
     atom   14 type  1   force =     0.00000000    0.00000000   -0.00052343
     atom   15 type  1   force =     0.00000000    0.00000000   -0.00052343
     atom   16 type  1   force =    -0.00000000    0.00000000   -0.00052343
     atom   17 type  1   force =    -0.00000000    0.00000000   -0.00052343
     atom   18 type  1   force =    -0.00000000    0.00000000   -0.00052343
     atom   19 type  1   force =     0.00000000   -0.00000000    0.00050490
     atom   20 type  1   force =     0.00000000   -0.00000000    0.00050490
     atom   21 type  1   force =     0.00000000   -0.00000000    0.00050490
     atom   22 type  1   force =    -0.00000000   -0.00000000    0.00050490
     atom   23 type  1   force =    -0.00000000   -0.00000000    0.00050490
     atom   24 type  1   force =    -0.00000000   -0.00000000    0.00050490
     atom   25 type  1   force =     0.00000000   -0.00000000    0.00050490
     atom   26 type  1   force =    -0.00000000   -0.00000000    0.00050490
     atom   27 type  1   force =     0.00000000   -0.00000000    0.00050490
     atom   28 type  1   force =     0.00000000   -0.00000000   -0.01667173
     atom   29 type  1   force =     0.00000000   -0.00000000   -0.01667173
     atom   30 type  1   force =     0.00000000   -0.00000000   -0.01667173
     atom   31 type  1   force =    -0.00000000    0.00000000   -0.01667173
     atom   32 type  1   force =    -0.00000000   -0.00000000   -0.01667173
     atom   33 type  1   force =    -0.00000000    0.00000000   -0.01667173
     atom   34 type  1   force =     0.00000000    0.00000000   -0.01667173
     atom   35 type  1   force =     0.00000000    0.00000000   -0.01667173
     atom   36 type  1   force =     0.00000000   -0.00000000   -0.01667173
     The Hubbard contrib.    to forces
     atom    1 type  1   force =     0.00000000    0.00000000    0.00000000
     atom    2 type  1   force =     0.00000000    0.00000000    0.00000000
     atom    3 type  1   force =     0.00000000    0.00000000    0.00000000
     atom    4 type  1   force =     0.00000000    0.00000000    0.00000000
     atom    5 type  1   force =     0.00000000    0.00000000    0.00000000
     atom    6 type  1   force =     0.00000000    0.00000000    0.00000000
     atom    7 type  1   force =     0.00000000    0.00000000    0.00000000
     atom    8 type  1   force =     0.00000000    0.00000000    0.00000000
     atom    9 type  1   force =     0.00000000    0.00000000    0.00000000
     atom   10 type  1   force =     0.00000000    0.00000000    0.00000000
     atom   11 type  1   force =     0.00000000    0.00000000    0.00000000
     atom   12 type  1   force =     0.00000000    0.00000000    0.00000000
     atom   13 type  1   force =     0.00000000    0.00000000    0.00000000
     atom   14 type  1   force =     0.00000000    0.00000000    0.00000000
     atom   15 type  1   force =     0.00000000    0.00000000    0.00000000
     atom   16 type  1   force =     0.00000000    0.00000000    0.00000000
     atom   17 type  1   force =     0.00000000    0.00000000    0.00000000
     atom   18 type  1   force =     0.00000000    0.00000000    0.00000000
     atom   19 type  1   force =     0.00000000    0.00000000    0.00000000
     atom   20 type  1   force =     0.00000000    0.00000000    0.00000000
     atom   21 type  1   force =     0.00000000    0.00000000    0.00000000
     atom   22 type  1   force =     0.00000000    0.00000000    0.00000000
     atom   23 type  1   force =     0.00000000    0.00000000    0.00000000
     atom   24 type  1   force =     0.00000000    0.00000000    0.00000000
     atom   25 type  1   force =     0.00000000    0.00000000    0.00000000
     atom   26 type  1   force =     0.00000000    0.00000000    0.00000000
     atom   27 type  1   force =     0.00000000    0.00000000    0.00000000
     atom   28 type  1   force =     0.00000000    0.00000000    0.00000000
     atom   29 type  1   force =     0.00000000    0.00000000    0.00000000
     atom   30 type  1   force =     0.00000000    0.00000000    0.00000000
     atom   31 type  1   force =     0.00000000    0.00000000    0.00000000
     atom   32 type  1   force =     0.00000000    0.00000000    0.00000000
     atom   33 type  1   force =     0.00000000    0.00000000    0.00000000
     atom   34 type  1   force =     0.00000000    0.00000000    0.00000000
     atom   35 type  1   force =     0.00000000    0.00000000    0.00000000
     atom   36 type  1   force =     0.00000000    0.00000000    0.00000000
     The SCF correction term to forces
     atom    1 type  1   force =     0.00000000    0.00000000    0.00000000
     atom    2 type  1   force =     0.00000000    0.00000000    0.00000000
     atom    3 type  1   force =     0.00000000    0.00000000    0.00000000
     atom    4 type  1   force =     0.00000000    0.00000000    0.00000000
     atom    5 type  1   force =     0.00000000    0.00000000    0.00000000
     atom    6 type  1   force =     0.00000000    0.00000000    0.00000000
     atom    7 type  1   force =     0.00000000    0.00000000    0.00000000
     atom    8 type  1   force =     0.00000000    0.00000000    0.00000000
     atom    9 type  1   force =     0.00000000    0.00000000    0.00000000
     atom   10 type  1   force =    -0.00000000   -0.00000000   -0.00000013
     atom   11 type  1   force =     0.00000000   -0.00000000   -0.00000013
     atom   12 type  1   force =     0.00000000   -0.00000000   -0.00000013
     atom   13 type  1   force =    -0.00000000    0.00000000   -0.00000013
     atom   14 type  1   force =     0.00000000    0.00000000   -0.00000013
     atom   15 type  1   force =    -0.00000000   -0.00000000   -0.00000013
     atom   16 type  1   force =     0.00000000    0.00000000   -0.00000013
     atom   17 type  1   force =    -0.00000000    0.00000000   -0.00000013
     atom   18 type  1   force =     0.00000000    0.00000000   -0.00000013
     atom   19 type  1   force =     0.00000000   -0.00000000    0.00000054
     atom   20 type  1   force =    -0.00000000   -0.00000000    0.00000054
     atom   21 type  1   force =     0.00000000   -0.00000000    0.00000054
     atom   22 type  1   force =     0.00000000   -0.00000000    0.00000054
     atom   23 type  1   force =     0.00000000    0.00000000    0.00000054
     atom   24 type  1   force =    -0.00000000   -0.00000000    0.00000054
     atom   25 type  1   force =     0.00000000    0.00000000    0.00000054
     atom   26 type  1   force =    -0.00000000    0.00000000    0.00000054
     atom   27 type  1   force =    -0.00000000    0.00000000    0.00000054
     atom   28 type  1   force =    -0.00000000    0.00000000   -0.00000005
     atom   29 type  1   force =     0.00000000    0.00000000   -0.00000005
     atom   30 type  1   force =    -0.00000000    0.00000000   -0.00000005
     atom   31 type  1   force =     0.00000000    0.00000000   -0.00000005
     atom   32 type  1   force =     0.00000000   -0.00000000   -0.00000005
     atom   33 type  1   force =    -0.00000000    0.00000000   -0.00000005
     atom   34 type  1   force =    -0.00000000   -0.00000000   -0.00000005
     atom   35 type  1   force =     0.00000000   -0.00000000   -0.00000005
     atom   36 type  1   force =    -0.00000000    0.00000000   -0.00000006

     Total force =     0.000337     Total SCF correction =     0.000002
     Energy error            =      1.5E-08 Ry
     Gradient error          =      8.0E-05 Ry/Bohr

     bfgs converged in  18 scf cycles and  16 bfgs steps
     (criteria: energy <  7.3E-07 Ry, force <  3.9E-04 Ry/Bohr)

     End of BFGS Geometry Optimization

     Final energy             =   -7839.3272500032 Ry

     File tmp/Cu-850-7.746788121318915.bfgs deleted, as requested
Begin final coordinates

ATOMIC_POSITIONS (angstrom)
Cu            0.0000000000        0.0000000000       -6.3613969092    0   0   0
Cu            2.5822627071        0.0000000000       -6.3613969092    0   0   0
Cu            5.1645254142        0.0000000000       -6.3613969092    0   0   0
Cu            1.2911313536        2.2363051036       -6.3613969092    0   0   0
Cu            3.8733940607        2.2363051036       -6.3613969092    0   0   0
Cu            6.4556567678        2.2363051036       -6.3613969092    0   0   0
Cu            2.5822627071        4.4726102072       -6.3613969092    0   0   0
Cu            5.1645254142        4.4726102072       -6.3613969092    0   0   0
Cu            7.7467881213        4.4726102072       -6.3613969092    0   0   0
Cu            1.2911313443        0.7454350291       -4.2745561106
Cu            3.8733940607        0.7454350376       -4.2745561124
Cu            6.4556567771        0.7454350291       -4.2745561106
Cu            2.5822627098        2.9817401366       -4.2745561124
Cu            5.1645254115        2.9817401366       -4.2745561124
Cu            7.7467881213        2.9817401401       -4.2745561032
Cu            3.8733940607        5.2180452525       -4.2745561106
Cu            6.4556567696        5.2180452407       -4.2745561032
Cu            9.0379194731        5.2180452407       -4.2745561032
Cu           -0.0000000000        1.4908700656       -2.1857499636
Cu            2.5822627016        1.4908700659       -2.1857499732
Cu            5.1645254197        1.4908700659       -2.1857499732
Cu            1.2911313536        3.7271751727       -2.1857499633
Cu            3.8733940607        3.7271751791       -2.1857499732
Cu            6.4556567678        3.7271751727       -2.1857499633
Cu            2.5822627101        5.9634802780       -2.1857499636
Cu            5.1645254112        5.9634802780       -2.1857499636
Cu            7.7467881213        5.9634802763       -2.1857499633
Cu            0.0000000000       -0.0000000000       -0.0976983686
Cu            2.5822627043       -0.0000000033       -0.0976983469
Cu            5.1645254170       -0.0000000033       -0.0976983469
Cu            1.2911313494        2.2363051029       -0.0976983469
Cu            3.8733940607        2.2363051036       -0.0976983668
Cu            6.4556567720        2.2363051029       -0.0976983469
Cu            2.5822627056        4.4726102112       -0.0976983469
Cu            5.1645254157        4.4726102112       -0.0976983469
Cu            7.7467881213        4.4726102072       -0.0976983408
End final coordinates

     Writing all to output data dir tmp/Cu-850-7.746788121318915.save/

     General routines

     Parallel routines

     PAW routines

   This run was terminated on:  19: 2:46  11Jun2024

   JOB DONE.