     Program PWSCF v.7.2 starts on 14Jul2024 at 21:47:59

     Reading input from Cu-1050-7.74485508512641.pwi
Warning: card &CELL ignored
Warning: card / ignored

     Current dimensions of program PWSCF are:
     Max number of different atomic species (ntypx) = 10
     Max number of k-points (npk) =  40000
     Max angular momentum in pseudopotentials (lmaxx) =  4
     file Cu.beef-dn-kjpaw_psl.1.0.0.UPF: wavefunction(s)  4S 3D renormalized
     file C.beef-n-kjpaw_psl.1.0.0.UPF: wavefunction(s)  2S 2P renormalized
     file O.beef-n-kjpaw_psl.1.0.0.UPF: wavefunction(s)  2P renormalized

     IMPORTANT: XC functional enforced from input :
     Exchange-correlation= BEEF-VDW
                           (   1   4  43  14   2   0   0)
     Any further DFT definition will be discarded
     Please, verify this is what you really want

     Message from routine setup:
     using ibrav=0 with symmetry is DISCOURAGED, use correct ibrav instead

     K-points division:     npool     =       2
     R & G space division:  proc/nbgrp/npool/nimage =      96
     Subspace diagonalization in iterative solution of the eigenvalue problem:
     one sub-group per band group will be used

     Using Slab Decomposition

     Title:
     Cu-1050-7.74485508512641

     bravais-lattice index     =            0
     lattice parameter (alat)  =      14.6357  a.u.
     unit-cell volume          =    7475.0710 (a.u.)^3
     number of atoms/cell      =           38
     number of atomic types    =            3
     number of electrons       =       406.00
     number of Kohn-Sham states=          244
     kinetic-energy cutoff     =      77.1736  Ry
     charge density cutoff     =     771.7358  Ry
     scf convergence threshold =      7.3E-12
     mixing beta               =       0.3333
     number of iterations used =           12  local-TF  mixing
     energy convergence thresh.=      7.3E-07
     force convergence thresh. =      3.9E-04
     Exchange-correlation= BEEF-VDW
                           (   1   4  43  14   2   0   0)
     nstep                     =           50

     Effective Screening Medium Method
     Boundary Conditions: Vacuum-Slab-Metal
     total charge in unit cell        =   0.0000
     grid points for fit at edges     =        4

     celldm(1)=  14.635655  celldm(2)=   0.000000  celldm(3)=   0.000000
     celldm(4)=   0.000000  celldm(5)=   0.000000  celldm(6)=   0.000000

     crystal axes: (cart. coord. in units of alat)
               a(1) = (   1.000000   0.000000   0.000000 )
               a(2) = (   0.500000   0.866025   0.000000 )
               a(3) = (   0.000000   0.000000   2.753266 )

     reciprocal axes: (cart. coord. in units 2 pi/alat)
               b(1) = (  1.000000 -0.577350  0.000000 )
               b(2) = (  0.000000  1.154701  0.000000 )
               b(3) = (  0.000000  0.000000  0.363205 )

     PseudoPot. # 1 for Cu read from file:
     /home/k0227/k022716/QE/pseudo/beef/Cu.beef-dn-kjpaw_psl.1.0.0.UPF
     MD5 check sum: 5c2e06f1363dd15696904a521997ce16
     Pseudo is Projector augmented-wave + core cor, Zval = 11.0
     Generated using 'atomic' code by A. Dal Corso  v.7.2
     Shape of augmentation charge: PSQ
     Using radial grid of 1199 points,  6 beta functions with:
                l(1) =   0
                l(2) =   0
                l(3) =   1
                l(4) =   1
                l(5) =   2
                l(6) =   2
     Q(r) pseudized with 0 coefficients

     PseudoPot. # 2 for C  read from file:
     /home/k0227/k022716/QE/pseudo/beef/C.beef-n-kjpaw_psl.1.0.0.UPF
     MD5 check sum: 3242be9e0015b82b0ed5ff45e65f34ec
     Pseudo is Projector augmented-wave + core cor, Zval =  4.0
     Generated using 'atomic' code by A. Dal Corso  v.7.2
     Shape of augmentation charge: PSQ
     Using radial grid of 1073 points,  4 beta functions with:
                l(1) =   0
                l(2) =   0
                l(3) =   1
                l(4) =   1
     Q(r) pseudized with 0 coefficients

     PseudoPot. # 3 for O  read from file:
     /home/k0227/k022716/QE/pseudo/beef/O.beef-n-kjpaw_psl.1.0.0.UPF
     MD5 check sum: be449223b47fa93bb079dbf01a63c6ce
     Pseudo is Projector augmented-wave + core cor, Zval =  6.0
     Generated using 'atomic' code by A. Dal Corso  v.7.2
     Shape of augmentation charge: PSQ
     Using radial grid of 1095 points,  4 beta functions with:
                l(1) =   0
                l(2) =   0
                l(3) =   1
                l(4) =   1
     Q(r) pseudized with 0 coefficients

     atomic species   valence    mass     pseudopotential
        Cu            11.00    63.54600     Cu( 1.00)
        C              4.00    12.01100     C ( 1.00)
        O              6.00    15.99900     O ( 1.00)

      6 Sym. Ops. (no inversion) found ( 4 have fractional translation)

                                    s                        frac. trans.

      isym =  1     identity

 cryst.   s( 1) = (     1          0          0      )
                  (     0          1          0      )
                  (     0          0          1      )

 cart.    s( 1) = (  1.0000000  0.0000000  0.0000000 )
                  (  0.0000000  1.0000000  0.0000000 )
                  (  0.0000000  0.0000000  1.0000000 )

      isym =  2     120 deg rotation - cryst. axis [0,0,1]

 cryst.   s( 2) = (    -1          1          0      )    f =(  0.3333333 )
                  (    -1          0          0      )       (  0.0000000 )
                  (     0          0          1      )       (  0.0000000 )

 cart.    s( 2) = ( -0.5000000 -0.8660254  0.0000000 )    f =(  0.3333333 )
                  (  0.8660254 -0.5000000  0.0000000 )       (  0.0000000 )
                  (  0.0000000  0.0000000  1.0000000 )       (  0.0000000 )

      isym =  3     120 deg rotation - cryst. axis [0,0,-1]

[...]

      isym =  4     inv. 180 deg rotation - cart. axis [1,0,0]

[...]

      isym =  5     inv. 180 deg rotation - cryst. axis [0,1,0]

 cryst.   s( 5) = (     0          1          0      )
                  (     1          0          0      )
                  (     0          0          1      )

 cart.    s( 5) = (  0.5000000  0.8660254  0.0000000 )
                  (  0.8660254 -0.5000000  0.0000000 )
                  (  0.0000000  0.0000000  1.0000000 )

      isym =  6     inv. 180 deg rotation - cryst. axis [1,1,0]

 cryst.   s( 6) = (     1         -1          0      )    f =(  0.0000000 )
                  (     0         -1          0      )       (  0.3333333 )
                  (     0          0          1      )       (  0.0000000 )

 cart.    s( 6) = (  0.5000000 -0.8660254  0.0000000 )    f =(  0.1666667 )
                  ( -0.8660254 -0.5000000  0.0000000 )       (  0.2886751 )
                  (  0.0000000  0.0000000  1.0000000 )       (  0.0000000 )

   Cartesian axes

     site n.     atom                  positions (alat units)
         1           Cu  tau(   1) = (   0.0000000   0.0000000  -0.8212382  )
         2           Cu  tau(   2) = (   0.3333333   0.0000000  -0.8212382  )
         3           Cu  tau(   3) = (   0.6666667   0.0000000  -0.8212382  )
         4           Cu  tau(   4) = (   0.1666667   0.2886751  -0.8212382  )
         5           Cu  tau(   5) = (   0.5000000   0.2886751  -0.8212382  )
         6           Cu  tau(   6) = (   0.8333333   0.2886751  -0.8212382  )
         7           Cu  tau(   7) = (   0.3333333   0.5773503  -0.8212382  )
         8           Cu  tau(   8) = (   0.6666667   0.5773503  -0.8212382  )
         9           Cu  tau(   9) = (   1.0000000   0.5773503  -0.8212382  )
        10           Cu  tau(  10) = (   0.1666667   0.0962250  -0.5490727  )
        11           Cu  tau(  11) = (   0.5000000   0.0962250  -0.5490727  )
        12           Cu  tau(  12) = (   0.8333333   0.0962250  -0.5490727  )
        13           Cu  tau(  13) = (   0.3333333   0.3849002  -0.5490727  )
        14           Cu  tau(  14) = (   0.6666667   0.3849002  -0.5490727  )
        15           Cu  tau(  15) = (   1.0000000   0.3849002  -0.5490727  )
        16           Cu  tau(  16) = (   0.5000000   0.6735753  -0.5490727  )
        17           Cu  tau(  17) = (   0.8333333   0.6735753  -0.5490727  )
        18           Cu  tau(  18) = (   1.1666667   0.6735753  -0.5490727  )
        19           Cu  tau(  19) = (   0.0000000   0.1924501  -0.2769072  )
        20           Cu  tau(  20) = (   0.3333333   0.1924501  -0.2769072  )
        21           Cu  tau(  21) = (   0.6666667   0.1924501  -0.2769072  )
        22           Cu  tau(  22) = (   0.1666667   0.4811252  -0.2769072  )
        23           Cu  tau(  23) = (   0.5000000   0.4811252  -0.2769072  )
        24           Cu  tau(  24) = (   0.8333333   0.4811252  -0.2769072  )
        25           Cu  tau(  25) = (   0.3333333   0.7698004  -0.2769072  )
        26           Cu  tau(  26) = (   0.6666667   0.7698004  -0.2769072  )
        27           Cu  tau(  27) = (   1.0000000   0.7698004  -0.2769072  )
        28           Cu  tau(  28) = (   0.0000000   0.0000000  -0.0047416  )
        29           Cu  tau(  29) = (   0.3333333   0.0000000  -0.0047416  )
        30           Cu  tau(  30) = (   0.6666667   0.0000000  -0.0047416  )
        31           Cu  tau(  31) = (   0.1666667   0.2886751  -0.0047416  )
        32           Cu  tau(  32) = (   0.5000000   0.2886751  -0.0047416  )
        33           Cu  tau(  33) = (   0.8333333   0.2886751  -0.0047416  )
        34           Cu  tau(  34) = (   0.3333333   0.5773503  -0.0047416  )
        35           Cu  tau(  35) = (   0.6666667   0.5773503  -0.0047416  )
        36           Cu  tau(  36) = (   1.0000000   0.5773503  -0.0047416  )
        37           C   tau(  37) = (   0.8333333   0.4811252   0.1001014  )
        38           O   tau(  38) = (   0.8333333   0.4811252   0.2470384  )

   Crystallographic axes

     site n.     atom                  positions (cryst. coord.)
         1           Cu  tau(   1) = (  0.0000000  0.0000000 -0.2982778  )
         2           Cu  tau(   2) = (  0.3333333  0.0000000 -0.2982778  )
         3           Cu  tau(   3) = (  0.6666667  0.0000000 -0.2982778  )
         4           Cu  tau(   4) = (  0.0000000  0.3333333 -0.2982778  )
         5           Cu  tau(   5) = (  0.3333333  0.3333333 -0.2982778  )
         6           Cu  tau(   6) = (  0.6666667  0.3333333 -0.2982778  )
         7           Cu  tau(   7) = (  0.0000000  0.6666667 -0.2982778  )
         8           Cu  tau(   8) = (  0.3333333  0.6666667 -0.2982778  )
         9           Cu  tau(   9) = (  0.6666667  0.6666667 -0.2982778  )
        10           Cu  tau(  10) = (  0.1111111  0.1111111 -0.1994259  )
        11           Cu  tau(  11) = (  0.4444444  0.1111111 -0.1994259  )
        12           Cu  tau(  12) = (  0.7777778  0.1111111 -0.1994259  )
        13           Cu  tau(  13) = (  0.1111111  0.4444444 -0.1994259  )
        14           Cu  tau(  14) = (  0.4444444  0.4444444 -0.1994259  )
        15           Cu  tau(  15) = (  0.7777778  0.4444444 -0.1994259  )
        16           Cu  tau(  16) = (  0.1111111  0.7777778 -0.1994259  )
[...]
     atom   17 type  1   force =    -0.00000000    0.09216794  220.57089397
     atom   18 type  1   force =     0.09328883    0.05386033  221.53157486
     atom   19 type  1   force =     0.14437577   -0.38788256  369.51170929
     atom   20 type  1   force =     0.00000000   -0.00000000  367.79698848
     atom   21 type  1   force =    -0.14437577   -0.38788256  369.51170929
     atom   22 type  1   force =     0.40810403    0.06890819  369.51170929
     atom   23 type  1   force =    -0.40810403    0.06890819  369.51170929
     atom   24 type  1   force =     0.00000000   -0.00000000  365.89381578
     atom   25 type  1   force =    -0.00000000    0.00000000  368.73856215
     atom   26 type  1   force =    -0.26372826    0.31897437  369.51170929
     atom   27 type  1   force =     0.26372826    0.31897437  369.51170929
     atom   28 type  1   force =    -0.26261233   -0.15161930  517.18959741
     atom   29 type  1   force =     0.00000000    1.31121212  516.01121302
     atom   30 type  1   force =     0.26261233   -0.15161930  517.18959741
     atom   31 type  1   force =     1.13554301   -0.65560606  516.01121302
     atom   32 type  1   force =    -1.13554301   -0.65560606  516.01121302
     atom   33 type  1   force =     0.00000000   -4.53171129  514.61756416
     atom   34 type  1   force =    -0.00000000    0.30323859  517.18959741
     atom   35 type  1   force =    -3.92457710    2.26585565  514.61756416
     atom   36 type  1   force =     3.92457710    2.26585565  514.61756416
     atom   37 type  2   force =    -0.00000000    0.00000000  205.93920787
     atom   38 type  3   force =     0.00000000    0.00000000  336.05293300
     The local contribution  to forces
     atom    1 type  1   force =     0.00295123    0.00170389  -74.32201150
     atom    2 type  1   force =    -0.00000000   -0.15111144  -74.28766835
     atom    3 type  1   force =    -0.00295123    0.00170389  -74.32201150
     atom    4 type  1   force =    -0.13086636    0.07555572  -74.28766835
     atom    5 type  1   force =     0.13086634    0.07555572  -74.28766835
     atom    6 type  1   force =    -0.00000001    0.07304043  -74.21193715
     atom    7 type  1   force =    -0.00000000   -0.00340778  -74.32201150
     atom    8 type  1   force =     0.06325487   -0.03652021  -74.21193715
     atom    9 type  1   force =    -0.06325487   -0.03652021  -74.21193715
     atom   10 type  1   force =    -0.01154136   -0.00666340 -221.82047201
     atom   11 type  1   force =     0.01154135   -0.00666340 -221.82047201
     atom   12 type  1   force =    -0.00000001    0.11502321 -221.50393570
     atom   13 type  1   force =    -0.00000000    0.01332680 -221.82047201
     atom   14 type  1   force =     0.07725651    0.04460406 -220.54147674
     atom   15 type  1   force =    -0.07725651    0.04460406 -220.54147674
     atom   16 type  1   force =     0.09961301   -0.05751161 -221.50393570
     atom   17 type  1   force =    -0.00000001   -0.08920814 -220.54147674
     atom   18 type  1   force =    -0.09961302   -0.05751161 -221.50393570
     atom   19 type  1   force =    -0.14603114    0.39884573 -369.53635442
     atom   20 type  1   force =    -0.00000000   -0.00000001 -367.81531657
     atom   21 type  1   force =     0.14603114    0.39884573 -369.53635442
     atom   22 type  1   force =    -0.41842612   -0.07295619 -369.53635442
     atom   23 type  1   force =     0.41842610   -0.07295619 -369.53635442
     atom   24 type  1   force =    -0.00000001   -0.00000000 -365.92084978
     atom   25 type  1   force =    -0.00000000   -0.00000000 -368.77704181
     atom   26 type  1   force =     0.27239497   -0.32588954 -369.53635442
     atom   27 type  1   force =    -0.27239496   -0.32588954 -369.53635442
     atom   28 type  1   force =     0.26795402    0.15470333 -517.28848911
     atom   29 type  1   force =    -0.00000000   -1.28624725 -516.13221231
     atom   30 type  1   force =    -0.26795402    0.15470333 -517.28848911
     atom   31 type  1   force =    -1.11392280    0.64312362 -516.13221231
     atom   32 type  1   force =     1.11392278    0.64312362 -516.13221231
     atom   33 type  1   force =    -0.00000001    4.39463758 -514.72877202
     atom   34 type  1   force =    -0.00000000   -0.30940665 -517.28848911
     atom   35 type  1   force =     3.80586778   -2.19731878 -514.72877202
     atom   36 type  1   force =    -3.80586778   -2.19731878 -514.72877202
     atom   37 type  2   force =    -0.00000000   -0.00000000 -206.42378695
     atom   38 type  3   force =    -0.00000000   -0.00000000 -333.42097932
     The core correction contribution to forces
     atom    1 type  1   force =    -0.00008350   -0.00004821    0.01652305
     atom    2 type  1   force =    -0.00000000   -0.00037354    0.01676309
     atom    3 type  1   force =     0.00008350   -0.00004821    0.01652305
     atom    4 type  1   force =    -0.00032350    0.00018677    0.01676309
     atom    5 type  1   force =     0.00032350    0.00018677    0.01676309
     atom    6 type  1   force =    -0.00000000    0.00019570    0.01699838
     atom    7 type  1   force =    -0.00000000    0.00009642    0.01652305
     atom    8 type  1   force =     0.00016948   -0.00009785    0.01699838
     atom    9 type  1   force =    -0.00016948   -0.00009785    0.01699838
     atom   10 type  1   force =    -0.00006499   -0.00003752   -0.00003510
     atom   11 type  1   force =     0.00006498   -0.00003752   -0.00003510
     atom   12 type  1   force =    -0.00000000    0.00024005   -0.00020352
     atom   13 type  1   force =    -0.00000000    0.00007504   -0.00003510
     atom   14 type  1   force =    -0.00055711   -0.00032165   -0.00048717
     atom   15 type  1   force =     0.00055711   -0.00032165   -0.00048717
     atom   16 type  1   force =     0.00020789   -0.00012003   -0.00020352
     atom   17 type  1   force =    -0.00000000    0.00064329   -0.00048717
     atom   18 type  1   force =    -0.00020789   -0.00012003   -0.00020352
     atom   19 type  1   force =    -0.00015507    0.00095523    0.00038067
     atom   20 type  1   force =    -0.00000000   -0.00000000    0.00093819
     atom   21 type  1   force =     0.00015507    0.00095523    0.00038067
     atom   22 type  1   force =    -0.00090479   -0.00034332    0.00038067
     atom   23 type  1   force =     0.00090478   -0.00034332    0.00038067
     atom   24 type  1   force =    -0.00000000   -0.00000000   -0.00609859
     atom   25 type  1   force =    -0.00000000    0.00000000    0.00031539
     atom   26 type  1   force =     0.00074972   -0.00061191    0.00038067
     atom   27 type  1   force =    -0.00074972   -0.00061191    0.00038067
     atom   28 type  1   force =     0.00036100    0.00020843   -0.01650313
     atom   29 type  1   force =    -0.00000000    0.00067910   -0.01741430
     atom   30 type  1   force =    -0.00036100    0.00020843   -0.01650313
     atom   31 type  1   force =     0.00058811   -0.00033955   -0.01741430
     atom   32 type  1   force =    -0.00058812   -0.00033955   -0.01741430
     atom   33 type  1   force =    -0.00000000    0.00932459   -0.00814348
     atom   34 type  1   force =    -0.00000000   -0.00041685   -0.01650313
     atom   35 type  1   force =     0.00807533   -0.00466229   -0.00814348
     atom   36 type  1   force =    -0.00807533   -0.00466229   -0.00814348
     atom   37 type  2   force =     0.00000000    0.00000000   -0.00089540
     atom   38 type  3   force =    -0.00000000   -0.00000000    0.01821210
     The Hubbard contrib.    to forces
     atom    1 type  1   force =     0.00000000    0.00000000    0.00000000
     atom    2 type  1   force =     0.00000000    0.00000000    0.00000000
     atom    3 type  1   force =     0.00000000    0.00000000    0.00000000
     atom    4 type  1   force =     0.00000000    0.00000000    0.00000000
     atom    5 type  1   force =     0.00000000    0.00000000    0.00000000
     atom    6 type  1   force =     0.00000000    0.00000000    0.00000000
     atom    7 type  1   force =     0.00000000    0.00000000    0.00000000
     atom    8 type  1   force =     0.00000000    0.00000000    0.00000000
     atom    9 type  1   force =     0.00000000    0.00000000    0.00000000
     atom   10 type  1   force =     0.00000000    0.00000000    0.00000000
     atom   11 type  1   force =     0.00000000    0.00000000    0.00000000
     atom   12 type  1   force =     0.00000000    0.00000000    0.00000000
     atom   13 type  1   force =     0.00000000    0.00000000    0.00000000
     atom   14 type  1   force =     0.00000000    0.00000000    0.00000000
     atom   15 type  1   force =     0.00000000    0.00000000    0.00000000
     atom   16 type  1   force =     0.00000000    0.00000000    0.00000000
     atom   17 type  1   force =     0.00000000    0.00000000    0.00000000
     atom   18 type  1   force =     0.00000000    0.00000000    0.00000000
     atom   19 type  1   force =     0.00000000    0.00000000    0.00000000
     atom   20 type  1   force =     0.00000000    0.00000000    0.00000000
     atom   21 type  1   force =     0.00000000    0.00000000    0.00000000
     atom   22 type  1   force =     0.00000000    0.00000000    0.00000000
     atom   23 type  1   force =     0.00000000    0.00000000    0.00000000
     atom   24 type  1   force =     0.00000000    0.00000000    0.00000000
     atom   25 type  1   force =     0.00000000    0.00000000    0.00000000
     atom   26 type  1   force =     0.00000000    0.00000000    0.00000000
     atom   27 type  1   force =     0.00000000    0.00000000    0.00000000
     atom   28 type  1   force =     0.00000000    0.00000000    0.00000000
     atom   29 type  1   force =     0.00000000    0.00000000    0.00000000
     atom   30 type  1   force =     0.00000000    0.00000000    0.00000000
     atom   31 type  1   force =     0.00000000    0.00000000    0.00000000
     atom   32 type  1   force =     0.00000000    0.00000000    0.00000000
     atom   33 type  1   force =     0.00000000    0.00000000    0.00000000
     atom   34 type  1   force =     0.00000000    0.00000000    0.00000000
     atom   35 type  1   force =     0.00000000    0.00000000    0.00000000
     atom   36 type  1   force =     0.00000000    0.00000000    0.00000000
     atom   37 type  2   force =     0.00000000    0.00000000    0.00000000
     atom   38 type  3   force =     0.00000000    0.00000000    0.00000000
     The SCF correction term to forces
     atom    1 type  1   force =     0.00000000    0.00000000    0.00000000
     atom    2 type  1   force =     0.00000000    0.00000000    0.00000000
     atom    3 type  1   force =     0.00000000    0.00000000    0.00000000
     atom    4 type  1   force =     0.00000000    0.00000000    0.00000000
     atom    5 type  1   force =     0.00000000    0.00000000    0.00000000
     atom    6 type  1   force =     0.00000000    0.00000000    0.00000000
     atom    7 type  1   force =     0.00000000    0.00000000    0.00000000
     atom    8 type  1   force =     0.00000000    0.00000000    0.00000000
     atom    9 type  1   force =     0.00000000    0.00000000    0.00000000
     atom   10 type  1   force =    -0.00000004   -0.00000002   -0.00000021
     atom   11 type  1   force =     0.00000004   -0.00000002   -0.00000021
     atom   12 type  1   force =     0.00000000   -0.00000007   -0.00000017
     atom   13 type  1   force =     0.00000000    0.00000005   -0.00000021
     atom   14 type  1   force =     0.00000001    0.00000000   -0.00000001
     atom   15 type  1   force =    -0.00000001    0.00000000   -0.00000001
     atom   16 type  1   force =    -0.00000006    0.00000003   -0.00000017
     atom   17 type  1   force =    -0.00000000   -0.00000001   -0.00000001
     atom   18 type  1   force =     0.00000006    0.00000003   -0.00000017
     atom   19 type  1   force =     0.00000006    0.00000001   -0.00000009
     atom   20 type  1   force =    -0.00000000   -0.00000000    0.00000002
     atom   21 type  1   force =    -0.00000006    0.00000001   -0.00000009
     atom   22 type  1   force =     0.00000002   -0.00000006   -0.00000009
     atom   23 type  1   force =    -0.00000002   -0.00000006   -0.00000009
     atom   24 type  1   force =     0.00000000    0.00000000   -0.00000042
     atom   25 type  1   force =     0.00000000    0.00000000    0.00000019
     atom   26 type  1   force =     0.00000004    0.00000005   -0.00000009
     atom   27 type  1   force =    -0.00000004    0.00000005   -0.00000009
     atom   28 type  1   force =     0.00000020    0.00000011    0.00000036
     atom   29 type  1   force =     0.00000000   -0.00000020    0.00000046
     atom   30 type  1   force =    -0.00000020    0.00000011    0.00000036
     atom   31 type  1   force =    -0.00000017    0.00000010    0.00000046
     atom   32 type  1   force =     0.00000017    0.00000010    0.00000046
     atom   33 type  1   force =     0.00000000    0.00000056   -0.00000007
     atom   34 type  1   force =    -0.00000000   -0.00000023    0.00000036
     atom   35 type  1   force =     0.00000048   -0.00000028   -0.00000007
     atom   36 type  1   force =    -0.00000048   -0.00000028   -0.00000007
     atom   37 type  2   force =    -0.00000000   -0.00000000   -0.00000005
     atom   38 type  3   force =    -0.00000000   -0.00000000    0.00000018

     Total force =     0.000495     Total SCF correction =     0.000002
     Energy error            =      6.9E-07 Ry
     Gradient error          =      1.7E-04 Ry/Bohr

     bfgs converged in  32 scf cycles and  31 bfgs steps
     (criteria: energy <  7.3E-07 Ry, force <  3.9E-04 Ry/Bohr)

     End of BFGS Geometry Optimization

     Final energy             =   -7900.8507811868 Ry

     File tmp/Cu-1050-7.74485508512641.bfgs deleted, as requested
Begin final coordinates

ATOMIC_POSITIONS (angstrom)
Cu            0.0000000000        0.0000000000       -6.3603710029    0   0   0
Cu            2.5816183617        0.0000000000       -6.3603710029    0   0   0
Cu            5.1632367234        0.0000000000       -6.3603710029    0   0   0
Cu            1.2908091809        2.2357470841       -6.3603710029    0   0   0
Cu            3.8724275426        2.2357470841       -6.3603710029    0   0   0
Cu            6.4540459043        2.2357470841       -6.3603710029    0   0   0
Cu            2.5816183617        4.4714941682       -6.3603710029    0   0   0
Cu            5.1632367234        4.4714941682       -6.3603710029    0   0   0
Cu            7.7448550851        4.4714941682       -6.3603710029    0   0   0
Cu            1.2867719543        0.7429181341       -4.2651361614
Cu            3.8764647692        0.7429181341       -4.2651361614
Cu            6.4540459043        0.7463589710       -4.2699270990
Cu            2.5816183617        2.9856579000       -4.2651361614
Cu            5.1557324968        2.9766635449       -4.2826096742
Cu            7.7523593117        2.9766635449       -4.2826096742
Cu            3.8733887815        5.2161882248       -4.2699270990
Cu            6.4540459043        5.2254083308       -4.2826096742
Cu            9.0347030271        5.2161882248       -4.2699270990
Cu           -0.0088561682        1.5002880087       -2.1735072170
Cu            2.5816183617        1.4904980561       -2.1984166523
Cu            5.1720928916        1.5002880087       -2.1735072170
Cu            1.2779027492        3.7290198306       -2.1735072170
Cu            3.8853339743        3.7290198306       -2.1735072170
Cu            6.4540459043        3.7262451402       -2.2307275375
Cu            2.5816183617        5.9619922243       -2.1887104924
Cu            5.1672869869        5.9494275814       -2.1735072170
Cu            7.7408048216        5.9494275814       -2.1735072170
Cu           -0.0004535123       -0.0002618354       -0.0972933746
Cu            2.5816183617        0.0191147866       -0.1109130416
Cu            5.1636902357       -0.0002618354       -0.0972933746
Cu            1.3073630717        2.2261896908       -0.1109130416
Cu            3.8558736518        2.2261896908       -0.1109130416
Cu            6.4540459043        2.2205131118       -0.0456859105
Cu            2.5816183617        4.4720178391       -0.0972933746
Cu            5.1500437164        4.4791111544       -0.0456859105
Cu            7.7580480921        4.4791111544       -0.0456859105
C             6.4540459043        3.7262451402        1.3697486521
O             6.4540459043        3.7262451402        2.5458825260
End final coordinates

     Writing all to output data dir tmp/Cu-1050-7.74485508512641.save/

     General routines

     Parallel routines

     PAW routines

   This run was terminated on:   1:29:18  15Jul2024

   JOB DONE.