     Program PWSCF v.7.2 starts on 16Jul2024 at  3:19: 3

     Reading input from Cu-1200-7.750918200505966.pwi
Warning: card &CELL ignored
Warning: card / ignored

     Current dimensions of program PWSCF are:
     Max number of different atomic species (ntypx) = 10
     Max number of k-points (npk) =  40000
     Max angular momentum in pseudopotentials (lmaxx) =  4
     file Cu.beef-dn-kjpaw_psl.1.0.0.UPF: wavefunction(s)  4S 3D renormalized
     file C.beef-n-kjpaw_psl.1.0.0.UPF: wavefunction(s)  2S 2P renormalized
     file O.beef-n-kjpaw_psl.1.0.0.UPF: wavefunction(s)  2P renormalized

     IMPORTANT: XC functional enforced from input :
     Exchange-correlation= BEEF-VDW
                           (   1   4  43  14   2   0   0)
     Any further DFT definition will be discarded
     Please, verify this is what you really want

     Message from routine setup:
     using ibrav=0 with symmetry is DISCOURAGED, use correct ibrav instead

     K-points division:     npool     =       2
     R & G space division:  proc/nbgrp/npool/nimage =      96
     Subspace diagonalization in iterative solution of the eigenvalue problem:
     one sub-group per band group will be used

     Using Slab Decomposition

     Title:
     Cu-1200-7.750918200505966

     bravais-lattice index     =            0
     lattice parameter (alat)  =      14.6471  a.u.
     unit-cell volume          =    7488.5176 (a.u.)^3
     number of atoms/cell      =           38
     number of atomic types    =            3
     number of electrons       =       406.00
     number of Kohn-Sham states=          244
     kinetic-energy cutoff     =      88.1984  Ry
     charge density cutoff     =     881.9837  Ry
     scf convergence threshold =      7.3E-12
     mixing beta               =       0.3333
     number of iterations used =           12  local-TF  mixing
     energy convergence thresh.=      7.3E-07
     force convergence thresh. =      3.9E-04
     Exchange-correlation= BEEF-VDW
                           (   1   4  43  14   2   0   0)
     nstep                     =           50

     Effective Screening Medium Method
     Boundary Conditions: Vacuum-Slab-Metal
     total charge in unit cell        =   0.0000
     grid points for fit at edges     =        4

     celldm(1)=  14.647113  celldm(2)=   0.000000  celldm(3)=   0.000000
     celldm(4)=   0.000000  celldm(5)=   0.000000  celldm(6)=   0.000000

     crystal axes: (cart. coord. in units of alat)
               a(1) = (   1.000000   0.000000   0.000000 )
               a(2) = (   0.500000   0.866025   0.000000 )
               a(3) = (   0.000000   0.000000   2.751751 )

     reciprocal axes: (cart. coord. in units 2 pi/alat)
               b(1) = (  1.000000 -0.577350  0.000000 )
               b(2) = (  0.000000  1.154701  0.000000 )
               b(3) = (  0.000000  0.000000  0.363405 )

     PseudoPot. # 1 for Cu read from file:
     /home/k0227/k022716/QE/pseudo/beef/Cu.beef-dn-kjpaw_psl.1.0.0.UPF
     MD5 check sum: 5c2e06f1363dd15696904a521997ce16
     Pseudo is Projector augmented-wave + core cor, Zval = 11.0
     Generated using 'atomic' code by A. Dal Corso  v.7.2
     Shape of augmentation charge: PSQ
     Using radial grid of 1199 points,  6 beta functions with:
                l(1) =   0
                l(2) =   0
                l(3) =   1
                l(4) =   1
                l(5) =   2
                l(6) =   2
     Q(r) pseudized with 0 coefficients

     PseudoPot. # 2 for C  read from file:
     /home/k0227/k022716/QE/pseudo/beef/C.beef-n-kjpaw_psl.1.0.0.UPF
     MD5 check sum: 3242be9e0015b82b0ed5ff45e65f34ec
     Pseudo is Projector augmented-wave + core cor, Zval =  4.0
     Generated using 'atomic' code by A. Dal Corso  v.7.2
     Shape of augmentation charge: PSQ
     Using radial grid of 1073 points,  4 beta functions with:
                l(1) =   0
                l(2) =   0
                l(3) =   1
                l(4) =   1
     Q(r) pseudized with 0 coefficients

     PseudoPot. # 3 for O  read from file:
     /home/k0227/k022716/QE/pseudo/beef/O.beef-n-kjpaw_psl.1.0.0.UPF
     MD5 check sum: be449223b47fa93bb079dbf01a63c6ce
     Pseudo is Projector augmented-wave + core cor, Zval =  6.0
     Generated using 'atomic' code by A. Dal Corso  v.7.2
     Shape of augmentation charge: PSQ
     Using radial grid of 1095 points,  4 beta functions with:
                l(1) =   0
                l(2) =   0
                l(3) =   1
                l(4) =   1
     Q(r) pseudized with 0 coefficients

     atomic species   valence    mass     pseudopotential
        Cu            11.00    63.54600     Cu( 1.00)
        C              4.00    12.01100     C ( 1.00)
        O              6.00    15.99900     O ( 1.00)

      6 Sym. Ops. (no inversion) found ( 4 have fractional translation)

                                    s                        frac. trans.

      isym =  1     identity

 cryst.   s( 1) = (     1          0          0      )
                  (     0          1          0      )
                  (     0          0          1      )

 cart.    s( 1) = (  1.0000000  0.0000000  0.0000000 )
                  (  0.0000000  1.0000000  0.0000000 )
                  (  0.0000000  0.0000000  1.0000000 )

      isym =  2     120 deg rotation - cryst. axis [0,0,1]

 cryst.   s( 2) = (    -1          1          0      )    f =(  0.3333333 )
                  (    -1          0          0      )       (  0.0000000 )
                  (     0          0          1      )       (  0.0000000 )

 cart.    s( 2) = ( -0.5000000 -0.8660254  0.0000000 )    f =(  0.3333333 )
                  (  0.8660254 -0.5000000  0.0000000 )       (  0.0000000 )
                  (  0.0000000  0.0000000  1.0000000 )       (  0.0000000 )

      isym =  3     120 deg rotation - cryst. axis [0,0,-1]

[...]

      isym =  4     inv. 180 deg rotation - cart. axis [1,0,0]

[...]

      isym =  5     inv. 180 deg rotation - cryst. axis [0,1,0]

 cryst.   s( 5) = (     0          1          0      )
                  (     1          0          0      )
                  (     0          0          1      )

 cart.    s( 5) = (  0.5000000  0.8660254  0.0000000 )
                  (  0.8660254 -0.5000000  0.0000000 )
                  (  0.0000000  0.0000000  1.0000000 )

      isym =  6     inv. 180 deg rotation - cryst. axis [1,1,0]

 cryst.   s( 6) = (     1         -1          0      )    f =(  0.0000000 )
                  (     0         -1          0      )       (  0.3333333 )
                  (     0          0          1      )       (  0.0000000 )

 cart.    s( 6) = (  0.5000000 -0.8660254  0.0000000 )    f =(  0.1666667 )
                  ( -0.8660254 -0.5000000  0.0000000 )       (  0.2886751 )
                  (  0.0000000  0.0000000  1.0000000 )       (  0.0000000 )

   Cartesian axes

     site n.     atom                  positions (alat units)
         1           Cu  tau(   1) = (   0.0000000   0.0000000  -0.8210110  )
         2           Cu  tau(   2) = (   0.3333333   0.0000000  -0.8210110  )
         3           Cu  tau(   3) = (   0.6666667   0.0000000  -0.8210110  )
         4           Cu  tau(   4) = (   0.1666667   0.2886751  -0.8210110  )
         5           Cu  tau(   5) = (   0.5000000   0.2886751  -0.8210110  )
         6           Cu  tau(   6) = (   0.8333333   0.2886751  -0.8210110  )
         7           Cu  tau(   7) = (   0.3333333   0.5773503  -0.8210110  )
         8           Cu  tau(   8) = (   0.6666667   0.5773503  -0.8210110  )
         9           Cu  tau(   9) = (   1.0000000   0.5773503  -0.8210110  )
        10           Cu  tau(  10) = (   0.1666667   0.0962250  -0.5488454  )
        11           Cu  tau(  11) = (   0.5000000   0.0962250  -0.5488454  )
        12           Cu  tau(  12) = (   0.8333333   0.0962250  -0.5488454  )
        13           Cu  tau(  13) = (   0.3333333   0.3849002  -0.5488454  )
        14           Cu  tau(  14) = (   0.6666667   0.3849002  -0.5488454  )
        15           Cu  tau(  15) = (   1.0000000   0.3849002  -0.5488454  )
        16           Cu  tau(  16) = (   0.5000000   0.6735753  -0.5488454  )
        17           Cu  tau(  17) = (   0.8333333   0.6735753  -0.5488454  )
        18           Cu  tau(  18) = (   1.1666667   0.6735753  -0.5488454  )
        19           Cu  tau(  19) = (   0.0000000   0.1924501  -0.2766799  )
        20           Cu  tau(  20) = (   0.3333333   0.1924501  -0.2766799  )
        21           Cu  tau(  21) = (   0.6666667   0.1924501  -0.2766799  )
        22           Cu  tau(  22) = (   0.1666667   0.4811252  -0.2766799  )
        23           Cu  tau(  23) = (   0.5000000   0.4811252  -0.2766799  )
        24           Cu  tau(  24) = (   0.8333333   0.4811252  -0.2766799  )
        25           Cu  tau(  25) = (   0.3333333   0.7698004  -0.2766799  )
        26           Cu  tau(  26) = (   0.6666667   0.7698004  -0.2766799  )
        27           Cu  tau(  27) = (   1.0000000   0.7698004  -0.2766799  )
        28           Cu  tau(  28) = (   0.0000000   0.0000000  -0.0045144  )
        29           Cu  tau(  29) = (   0.3333333   0.0000000  -0.0045144  )
        30           Cu  tau(  30) = (   0.6666667   0.0000000  -0.0045144  )
        31           Cu  tau(  31) = (   0.1666667   0.2886751  -0.0045144  )
        32           Cu  tau(  32) = (   0.5000000   0.2886751  -0.0045144  )
        33           Cu  tau(  33) = (   0.8333333   0.2886751  -0.0045144  )
        34           Cu  tau(  34) = (   0.3333333   0.5773503  -0.0045144  )
        35           Cu  tau(  35) = (   0.6666667   0.5773503  -0.0045144  )
        36           Cu  tau(  36) = (   1.0000000   0.5773503  -0.0045144  )
        37           C   tau(  37) = (   0.8333333   0.4811252   0.1002466  )
        38           O   tau(  38) = (   0.8333333   0.4811252   0.2470687  )

   Crystallographic axes

     site n.     atom                  positions (cryst. coord.)
         1           Cu  tau(   1) = (  0.0000000  0.0000000 -0.2983595  )
         2           Cu  tau(   2) = (  0.3333333  0.0000000 -0.2983595  )
         3           Cu  tau(   3) = (  0.6666667  0.0000000 -0.2983595  )
         4           Cu  tau(   4) = ( -0.0000000  0.3333333 -0.2983595  )
         5           Cu  tau(   5) = (  0.3333333  0.3333333 -0.2983595  )
         6           Cu  tau(   6) = (  0.6666667  0.3333333 -0.2983595  )
         7           Cu  tau(   7) = (  0.0000000  0.6666667 -0.2983595  )
         8           Cu  tau(   8) = (  0.3333333  0.6666667 -0.2983595  )
         9           Cu  tau(   9) = (  0.6666667  0.6666667 -0.2983595  )
        10           Cu  tau(  10) = (  0.1111111  0.1111111 -0.1994532  )
        11           Cu  tau(  11) = (  0.4444444  0.1111111 -0.1994532  )
        12           Cu  tau(  12) = (  0.7777778  0.1111111 -0.1994532  )
        13           Cu  tau(  13) = (  0.1111111  0.4444444 -0.1994532  )
        14           Cu  tau(  14) = (  0.4444444  0.4444444 -0.1994532  )
        15           Cu  tau(  15) = (  0.7777778  0.4444444 -0.1994532  )
        16           Cu  tau(  16) = (  0.1111111  0.7777778 -0.1994532  )
[...]
     atom   18 type  1   force =     0.09646838    0.05569604  221.19285707
     atom   19 type  1   force =     0.14919980   -0.39557686  368.92410736
     atom   20 type  1   force =    -0.00000000   -0.00000000  367.23417006
     atom   21 type  1   force =    -0.14919979   -0.39557687  368.92410736
     atom   22 type  1   force =     0.41717951    0.06857762  368.92410736
     atom   23 type  1   force =    -0.41717951    0.06857762  368.92410736
     atom   24 type  1   force =     0.00000000    0.00000000  365.31194393
     atom   25 type  1   force =    -0.00000000    0.00000000  368.20495102
     atom   26 type  1   force =    -0.26797971    0.32699925  368.92410736
     atom   27 type  1   force =     0.26797971    0.32699925  368.92410736
     atom   28 type  1   force =    -0.25911598   -0.14960068  516.43023051
     atom   29 type  1   force =    -0.00000000    1.30824803  515.22369597
     atom   30 type  1   force =     0.25911599   -0.14960068  516.43023051
     atom   31 type  1   force =     1.13297603   -0.65412402  515.22369597
     atom   32 type  1   force =    -1.13297603   -0.65412402  515.22369597
     atom   33 type  1   force =     0.00000000   -4.53646016  513.73793031
     atom   34 type  1   force =    -0.00000000    0.29920137  516.43023051
     atom   35 type  1   force =    -3.92868974    2.26823008  513.73793031
     atom   36 type  1   force =     3.92868974    2.26823008  513.73793031
     atom   37 type  2   force =     0.00000000    0.00000000  205.58002007
     atom   38 type  3   force =     0.00000000    0.00000000  335.53246785
     The local contribution  to forces
     atom    1 type  1   force =     0.00470142    0.00271437  -74.21422809
     atom    2 type  1   force =    -0.00000001   -0.14953877  -74.17648829
     atom    3 type  1   force =    -0.00470142    0.00271437  -74.21422809
     atom    4 type  1   force =    -0.12950439    0.07476938  -74.17648829
     atom    5 type  1   force =     0.12950436    0.07476938  -74.17648829
     atom    6 type  1   force =    -0.00000000    0.07489744  -74.10331617
     atom    7 type  1   force =    -0.00000001   -0.00542873  -74.21422809
     atom    8 type  1   force =     0.06486309   -0.03744872  -74.10331617
     atom    9 type  1   force =    -0.06486310   -0.03744872  -74.10331617
     atom   10 type  1   force =    -0.00641761   -0.00370521 -221.46515198
     atom   11 type  1   force =     0.00641759   -0.00370521 -221.46515198
     atom   12 type  1   force =    -0.00000000    0.11867054 -221.16500688
     atom   13 type  1   force =    -0.00000001    0.00741040 -221.46515198
     atom   14 type  1   force =     0.08038316    0.04640923 -220.19504823
     atom   15 type  1   force =    -0.08038317    0.04640923 -220.19504823
     atom   16 type  1   force =     0.10277169   -0.05933527 -221.16500688
     atom   17 type  1   force =    -0.00000000   -0.09281848 -220.19504823
     atom   18 type  1   force =    -0.10277172   -0.05933527 -221.16500688
     atom   19 type  1   force =    -0.15080341    0.40645202 -368.94877055
     atom   20 type  1   force =    -0.00000001   -0.00000000 -367.25295477
     atom   21 type  1   force =     0.15080340    0.40645202 -368.94877055
     atom   22 type  1   force =    -0.42739949   -0.07262643 -368.94877055
     atom   23 type  1   force =     0.42739946   -0.07262643 -368.94877055
     atom   24 type  1   force =    -0.00000000    0.00000001 -365.33890374
     atom   25 type  1   force =    -0.00000001    0.00000000 -368.24349832
     atom   26 type  1   force =     0.27659608   -0.33382559 -368.94877055
     atom   27 type  1   force =    -0.27659608   -0.33382559 -368.94877055
     atom   28 type  1   force =     0.26434563    0.15262003 -516.52962590
     atom   29 type  1   force =    -0.00000001   -1.28302394 -515.34509816
     atom   30 type  1   force =    -0.26434564    0.15262003 -516.52962590
     atom   31 type  1   force =    -1.11113133    0.64151196 -515.34509816
     atom   32 type  1   force =     1.11113131    0.64151196 -515.34509816
     atom   33 type  1   force =    -0.00000000    4.39961212 -513.84903368
     atom   34 type  1   force =    -0.00000001   -0.30524005 -516.52962590
     atom   35 type  1   force =     3.81017587   -2.19980606 -513.84903368
     atom   36 type  1   force =    -3.81017587   -2.19980606 -513.84903368
     atom   37 type  2   force =    -0.00000000    0.00000000 -206.06463572
     atom   38 type  3   force =    -0.00000000    0.00000000 -332.90132856
     The core correction contribution to forces
     atom    1 type  1   force =    -0.00007368   -0.00004254    0.01657875
     atom    2 type  1   force =    -0.00000000   -0.00038882    0.01682777
     atom    3 type  1   force =     0.00007367   -0.00004254    0.01657875
     atom    4 type  1   force =    -0.00033673    0.00019441    0.01682777
     atom    5 type  1   force =     0.00033673    0.00019441    0.01682777
     atom    6 type  1   force =    -0.00000000    0.00021505    0.01705344
     atom    7 type  1   force =    -0.00000000    0.00008507    0.01657875
     atom    8 type  1   force =     0.00018624   -0.00010752    0.01705344
     atom    9 type  1   force =    -0.00018624   -0.00010752    0.01705344
     atom   10 type  1   force =    -0.00004101   -0.00002368   -0.00005665
     atom   11 type  1   force =     0.00004101   -0.00002368   -0.00005665
     atom   12 type  1   force =    -0.00000000    0.00023626   -0.00021528
     atom   13 type  1   force =    -0.00000000    0.00004735   -0.00005665
     atom   14 type  1   force =    -0.00057119   -0.00032978   -0.00050823
     atom   15 type  1   force =     0.00057119   -0.00032978   -0.00050823
     atom   16 type  1   force =     0.00020460   -0.00011813   -0.00021528
     atom   17 type  1   force =    -0.00000000    0.00065956   -0.00050823
     atom   18 type  1   force =    -0.00020460   -0.00011813   -0.00021528
     atom   19 type  1   force =    -0.00015461    0.00094737    0.00036392
     atom   20 type  1   force =    -0.00000000   -0.00000000    0.00090520
     atom   21 type  1   force =     0.00015461    0.00094737    0.00036392
     atom   22 type  1   force =    -0.00089775   -0.00033978    0.00036392
     atom   23 type  1   force =     0.00089775   -0.00033978    0.00036392
     atom   24 type  1   force =    -0.00000000    0.00000000   -0.00607447
     atom   25 type  1   force =    -0.00000000    0.00000000    0.00029220
     atom   26 type  1   force =     0.00074314   -0.00060758    0.00036392
     atom   27 type  1   force =    -0.00074314   -0.00060758    0.00036392
     atom   28 type  1   force =     0.00034798    0.00020091   -0.01652103
     atom   29 type  1   force =    -0.00000000    0.00069163   -0.01744478
     atom   30 type  1   force =    -0.00034798    0.00020091   -0.01652103
     atom   31 type  1   force =     0.00059897   -0.00034582   -0.01744478
     atom   32 type  1   force =    -0.00059897   -0.00034582   -0.01744478
     atom   33 type  1   force =    -0.00000000    0.00932172   -0.00819861
     atom   34 type  1   force =    -0.00000000   -0.00040182   -0.01652103
     atom   35 type  1   force =     0.00807285   -0.00466086   -0.00819861
     atom   36 type  1   force =    -0.00807285   -0.00466086   -0.00819861
     atom   37 type  2   force =     0.00000000   -0.00000000   -0.00108869
     atom   38 type  3   force =     0.00000000   -0.00000000    0.01818195
     The Hubbard contrib.    to forces
     atom    1 type  1   force =     0.00000000    0.00000000    0.00000000
     atom    2 type  1   force =     0.00000000    0.00000000    0.00000000
     atom    3 type  1   force =     0.00000000    0.00000000    0.00000000
     atom    4 type  1   force =     0.00000000    0.00000000    0.00000000
     atom    5 type  1   force =     0.00000000    0.00000000    0.00000000
     atom    6 type  1   force =     0.00000000    0.00000000    0.00000000
     atom    7 type  1   force =     0.00000000    0.00000000    0.00000000
     atom    8 type  1   force =     0.00000000    0.00000000    0.00000000
     atom    9 type  1   force =     0.00000000    0.00000000    0.00000000
     atom   10 type  1   force =     0.00000000    0.00000000    0.00000000
     atom   11 type  1   force =     0.00000000    0.00000000    0.00000000
     atom   12 type  1   force =     0.00000000    0.00000000    0.00000000
     atom   13 type  1   force =     0.00000000    0.00000000    0.00000000
     atom   14 type  1   force =     0.00000000    0.00000000    0.00000000
     atom   15 type  1   force =     0.00000000    0.00000000    0.00000000
     atom   16 type  1   force =     0.00000000    0.00000000    0.00000000
     atom   17 type  1   force =     0.00000000    0.00000000    0.00000000
     atom   18 type  1   force =     0.00000000    0.00000000    0.00000000
     atom   19 type  1   force =     0.00000000    0.00000000    0.00000000
     atom   20 type  1   force =     0.00000000    0.00000000    0.00000000
     atom   21 type  1   force =     0.00000000    0.00000000    0.00000000
     atom   22 type  1   force =     0.00000000    0.00000000    0.00000000
     atom   23 type  1   force =     0.00000000    0.00000000    0.00000000
     atom   24 type  1   force =     0.00000000    0.00000000    0.00000000
     atom   25 type  1   force =     0.00000000    0.00000000    0.00000000
     atom   26 type  1   force =     0.00000000    0.00000000    0.00000000
     atom   27 type  1   force =     0.00000000    0.00000000    0.00000000
     atom   28 type  1   force =     0.00000000    0.00000000    0.00000000
     atom   29 type  1   force =     0.00000000    0.00000000    0.00000000
     atom   30 type  1   force =     0.00000000    0.00000000    0.00000000
     atom   31 type  1   force =     0.00000000    0.00000000    0.00000000
     atom   32 type  1   force =     0.00000000    0.00000000    0.00000000
     atom   33 type  1   force =     0.00000000    0.00000000    0.00000000
     atom   34 type  1   force =     0.00000000    0.00000000    0.00000000
     atom   35 type  1   force =     0.00000000    0.00000000    0.00000000
     atom   36 type  1   force =     0.00000000    0.00000000    0.00000000
     atom   37 type  2   force =     0.00000000    0.00000000    0.00000000
     atom   38 type  3   force =     0.00000000    0.00000000    0.00000000
     The SCF correction term to forces
     atom    1 type  1   force =     0.00000000    0.00000000    0.00000000
     atom    2 type  1   force =     0.00000000    0.00000000    0.00000000
     atom    3 type  1   force =     0.00000000    0.00000000    0.00000000
     atom    4 type  1   force =     0.00000000    0.00000000    0.00000000
     atom    5 type  1   force =     0.00000000    0.00000000    0.00000000
     atom    6 type  1   force =     0.00000000    0.00000000    0.00000000
     atom    7 type  1   force =     0.00000000    0.00000000    0.00000000
     atom    8 type  1   force =     0.00000000    0.00000000    0.00000000
     atom    9 type  1   force =     0.00000000    0.00000000    0.00000000
     atom   10 type  1   force =     0.00000004    0.00000002    0.00000004
     atom   11 type  1   force =    -0.00000004    0.00000002    0.00000004
     atom   12 type  1   force =     0.00000000    0.00000008    0.00000016
     atom   13 type  1   force =    -0.00000000   -0.00000005    0.00000004
     atom   14 type  1   force =    -0.00000013   -0.00000008   -0.00000013
     atom   15 type  1   force =     0.00000013   -0.00000008   -0.00000013
     atom   16 type  1   force =     0.00000007   -0.00000004    0.00000016
     atom   17 type  1   force =    -0.00000000    0.00000015   -0.00000013
     atom   18 type  1   force =    -0.00000007   -0.00000004    0.00000016
     atom   19 type  1   force =     0.00000000    0.00000007    0.00000039
     atom   20 type  1   force =    -0.00000000   -0.00000000    0.00000020
     atom   21 type  1   force =    -0.00000000    0.00000007    0.00000039
     atom   22 type  1   force =    -0.00000006   -0.00000004    0.00000039
     atom   23 type  1   force =     0.00000006   -0.00000004    0.00000039
     atom   24 type  1   force =     0.00000000    0.00000000    0.00000039
     atom   25 type  1   force =    -0.00000000   -0.00000000    0.00000008
     atom   26 type  1   force =     0.00000006   -0.00000003    0.00000039
     atom   27 type  1   force =    -0.00000006   -0.00000003    0.00000039
     atom   28 type  1   force =     0.00000003    0.00000002    0.00000030
     atom   29 type  1   force =     0.00000000   -0.00000002    0.00000034
     atom   30 type  1   force =    -0.00000003    0.00000002    0.00000030
     atom   31 type  1   force =    -0.00000002    0.00000001    0.00000034
     atom   32 type  1   force =     0.00000002    0.00000001    0.00000034
     atom   33 type  1   force =     0.00000000    0.00000018    0.00000031
     atom   34 type  1   force =     0.00000000   -0.00000003    0.00000030
     atom   35 type  1   force =     0.00000015   -0.00000009    0.00000031
     atom   36 type  1   force =    -0.00000015   -0.00000009    0.00000031
     atom   37 type  2   force =     0.00000000    0.00000000   -0.00000003
     atom   38 type  3   force =     0.00000000    0.00000000   -0.00000034

     Total force =     0.000938     Total SCF correction =     0.000002
     Energy error            =      2.5E-08 Ry
     Gradient error          =      2.5E-04 Ry/Bohr

     bfgs converged in  34 scf cycles and  31 bfgs steps
     (criteria: energy <  7.3E-07 Ry, force <  3.9E-04 Ry/Bohr)

     End of BFGS Geometry Optimization

     Final energy             =   -7900.8565809446 Ry

     File tmp/Cu-1200-7.750918200505966.bfgs deleted, as requested
Begin final coordinates

ATOMIC_POSITIONS (angstrom)
Cu            0.0000000000        0.0000000000       -6.3635888363    0   0   0
Cu            2.5836394002        0.0000000000       -6.3635888363    0   0   0
Cu            5.1672788003        0.0000000000       -6.3635888363    0   0   0
Cu            1.2918197001        2.2374973548       -6.3635888363    0   0   0
Cu            3.8754591003        2.2374973548       -6.3635888363    0   0   0
Cu            6.4590985004        2.2374973548       -6.3635888363    0   0   0
Cu            2.5836394002        4.4749947095       -6.3635888363    0   0   0
Cu            5.1672788003        4.4749947095       -6.3635888363    0   0   0
Cu            7.7509182005        4.4749947095       -6.3635888363    0   0   0
Cu            1.2879196868        0.7435807779       -4.2713366205
Cu            3.8793591136        0.7435807779       -4.2713366205
Cu            6.4590985004        0.7468880531       -4.2758601889
Cu            2.5836394002        2.9878331539       -4.2713366205
Cu            5.1598664342        2.9790502748       -4.2886450361
Cu            7.7583305666        2.9790502748       -4.2886450361
Cu            3.8763732780        5.2202993604       -4.2758601889
Cu            6.4590985004        5.2293862242       -4.2886450361
Cu            9.0418237229        5.2202993604       -4.2758601889
Cu           -0.0087636827        1.5013788637       -2.1821509185
Cu            2.5836394002        1.4916649032       -2.2067721062
Cu            5.1760424830        1.5013788637       -2.1821509185
Cu            1.2790253221        3.7318948495       -2.1821509185
Cu            3.8882534783        3.7318948495       -2.1821509185
Cu            6.4590985004        3.7291622579       -2.2390527544
Cu            2.5836394002        5.9666596127       -2.1966279999
Cu            5.1713094955        5.9542130606       -2.1821509185
Cu            7.7468875053        5.9542130606       -2.1821509185
Cu           -0.0004933069       -0.0002848109       -0.1066611807
Cu            2.5836394002        0.0192893326       -0.1208442398
Cu            5.1677721072       -0.0002848109       -0.1066611807
Cu            1.3085247522        2.2278526885       -0.1208442398
Cu            3.8587540482        2.2278526885       -0.1208442398
Cu            6.4590985004        2.2221544543       -0.0573172516
Cu            2.5836394002        4.4755643313       -0.1066611807
Cu            5.1539914587        4.4826661598       -0.0573172516
Cu            7.7642055421        4.4826661598       -0.0573172516
C             6.4590985004        3.7291622579        1.3561828448
O             6.4590985004        3.7291622579        2.5324004707
End final coordinates

     Writing all to output data dir tmp/Cu-1200-7.750918200505966.save/

     General routines

     Parallel routines

     PAW routines

   This run was terminated on:  18:42:48  16Jul2024

   JOB DONE.
========= Job finished at Tue Jul 16 18:42:55 JST 2024 ==========