     Program PWSCF v.7.2 starts on  3Oct2024 at 12: 1:33

     Reading input from espresso_950.pwi

     Current dimensions of program PWSCF are:
     Max number of different atomic species (ntypx) = 10
     Max number of k-points (npk) =  40000
     Max angular momentum in pseudopotentials (lmaxx) =  4
     file Cu.pbe-dn-kjpaw_psl.1.0.0.UPF: wavefunction(s)  4S 3D renormalized

     IMPORTANT: XC functional enforced from input :
     Exchange-correlation= BEEF-VDW
                           (   1   4  43  14   2   0   0)
     Any further DFT definition will be discarded
     Please, verify this is what you really want

     Found identity + (  0.0000 -0.5000 -0.5000) symmetry
     This is a supercell, fractional translations are disabled
     Message from routine setup:
     using ibrav=0 with symmetry is DISCOURAGED, use correct ibrav instead

     K-points division:     npool     =       4
     R & G space division:  proc/nbgrp/npool/nimage =      16
     Subspace diagonalization in iterative solution of the eigenvalue problem:
     a serial algorithm will be used

     Using Slab Decomposition

     Title:
     espresso_950

     bravais-lattice index     =            0
     lattice parameter (alat)  =       6.8219  a.u.
     unit-cell volume          =     317.4813 (a.u.)^3
     number of atoms/cell      =            4
     number of atomic types    =            1
     number of electrons       =        44.00
     number of Kohn-Sham states=           26
     kinetic-energy cutoff     =      69.8237  Ry
     charge density cutoff     =     698.2371  Ry
     scf convergence threshold =      7.3E-12
     mixing beta               =       0.3333
     number of iterations used =           12  plain     mixing
     energy convergence thresh.=      7.3E-07
     force convergence thresh. =      3.9E-04
     press convergence thresh. =      5.0E-01
     Exchange-correlation= BEEF-VDW
                           (   1   4  43  14   2   0   0)
     nstep                     =           50

     celldm(1)=   6.821911  celldm(2)=   0.000000  celldm(3)=   0.000000
     celldm(4)=   0.000000  celldm(5)=   0.000000  celldm(6)=   0.000000

     crystal axes: (cart. coord. in units of alat)
               a(1) = (   1.000000   0.000000   0.000000 )
               a(2) = (   0.000000   1.000000   0.000000 )
               a(3) = (   0.000000   0.000000   1.000000 )

     reciprocal axes: (cart. coord. in units 2 pi/alat)
               b(1) = (  1.000000  0.000000  0.000000 )
               b(2) = (  0.000000  1.000000  0.000000 )
               b(3) = (  0.000000  0.000000  1.000000 )

     PseudoPot. # 1 for Cu read from file:
     /home/k0227/k022716/QE/pseudo/Cu.pbe-dn-kjpaw_psl.1.0.0.UPF
     MD5 check sum: 67c40f9e1593dc2d139023e70404cc2a
     Pseudo is Projector augmented-wave + core cor, Zval = 11.0
     Generated using "atomic" code by A. Dal Corso  v.6.1 svn rev. 13369
     Shape of augmentation charge: PSQ
     Using radial grid of 1199 points,  6 beta functions with:
                l(1) =   0
                l(2) =   0
                l(3) =   1
                l(4) =   1
                l(5) =   2
                l(6) =   2
     Q(r) pseudized with 0 coefficients

     atomic species   valence    mass     pseudopotential
        Cu            11.00    63.54600     Cu( 1.00)

     48 Sym. Ops., with inversion, found

                                    s                        frac. trans.

      isym =  1     identity

 cryst.   s( 1) = (     1          0          0      )
                  (     0          1          0      )
                  (     0          0          1      )

 cart.    s( 1) = (  1.0000000  0.0000000  0.0000000 )
                  (  0.0000000  1.0000000  0.0000000 )
                  (  0.0000000  0.0000000  1.0000000 )

      isym =  2     180 deg rotation - cart. axis [0,0,1]

[...]

 cryst.   s(10) = (     0          0         -1      )
                  (     0         -1          0      )
                  (    -1          0          0      )

 cart.    s(10) = (  0.0000000  0.0000000 -1.0000000 )
                  (  0.0000000 -1.0000000  0.0000000 )
                  ( -1.0000000  0.0000000  0.0000000 )

[...]

      isym = 25     inversion

[...]

      isym = 26     inv. 180 deg rotation - cart. axis [0,0,1]

[...]

   Cartesian axes

     site n.     atom                  positions (alat units)
         1           Cu  tau(   1) = (   0.0000000   0.0000000   0.0000000  )
         2           Cu  tau(   2) = (   0.0000000   0.5000000   0.5000000  )
         3           Cu  tau(   3) = (   0.5000000   0.0000000   0.5000000  )
         4           Cu  tau(   4) = (   0.5000000   0.5000000   0.0000000  )

   Crystallographic axes

     site n.     atom                  positions (cryst. coord.)
         1           Cu  tau(   1) = (  0.0000000  0.0000000  0.0000000  )
         2           Cu  tau(   2) = (  0.0000000  0.5000000  0.5000000  )
         3           Cu  tau(   3) = (  0.5000000  0.0000000  0.5000000  )
         4           Cu  tau(   4) = (  0.5000000  0.5000000  0.0000000  )

     number of k points=   455  Marzari-Vanderbilt smearing, width (Ry)=  0.0073
                       cart. coord. in units 2pi/alat
        k(    1) = (   0.0000000   0.0000000   0.0000000), wk =   0.0001447
        k(    2) = (   0.0000000   0.0000000   0.0416667), wk =   0.0008681
        k(    3) = (   0.0000000   0.0000000   0.0833333), wk =   0.0008681
        k(    4) = (   0.0000000   0.0000000   0.1250000), wk =   0.0008681
        k(    5) = (   0.0000000   0.0000000   0.1666667), wk =   0.0008681
        k(    6) = (   0.0000000   0.0000000   0.2083333), wk =   0.0008681
        k(    7) = (   0.0000000   0.0000000   0.2500000), wk =   0.0008681
        k(    8) = (   0.0000000   0.0000000   0.2916667), wk =   0.0008681
        k(    9) = (   0.0000000   0.0000000   0.3333333), wk =   0.0008681
        k(   10) = (   0.0000000   0.0000000   0.3750000), wk =   0.0008681
        k(   11) = (   0.0000000   0.0000000   0.4166667), wk =   0.0008681
        k(   12) = (   0.0000000   0.0000000   0.4583333), wk =   0.0008681
        k(   13) = (   0.0000000   0.0000000  -0.5000000), wk =   0.0004340
        k(   14) = (   0.0000000   0.0416667   0.0416667), wk =   0.0017361
        k(   15) = (   0.0000000   0.0416667   0.0833333), wk =   0.0034722
        k(   16) = (   0.0000000   0.0416667   0.1250000), wk =   0.0034722
        k(   17) = (   0.0000000   0.0416667   0.1666667), wk =   0.0034722
        k(   18) = (   0.0000000   0.0416667   0.2083333), wk =   0.0034722
        k(   19) = (   0.0000000   0.0416667   0.2500000), wk =   0.0034722
        k(   20) = (   0.0000000   0.0416667   0.2916667), wk =   0.0034722
        k(   21) = (   0.0000000   0.0416667   0.3333333), wk =   0.0034722
        k(   22) = (   0.0000000   0.0416667   0.3750000), wk =   0.0034722
        k(   23) = (   0.0000000   0.0416667   0.4166667), wk =   0.0034722
        k(   24) = (   0.0000000   0.0416667   0.4583333), wk =   0.0034722
        k(   25) = (   0.0000000   0.0416667  -0.5000000), wk =   0.0017361
        k(   26) = (   0.0000000   0.0833333   0.0833333), wk =   0.0017361
        k(   27) = (   0.0000000   0.0833333   0.1250000), wk =   0.0034722
        k(   28) = (   0.0000000   0.0833333   0.1666667), wk =   0.0034722
        k(   29) = (   0.0000000   0.0833333   0.2083333), wk =   0.0034722
        k(   30) = (   0.0000000   0.0833333   0.2500000), wk =   0.0034722
        k(   31) = (   0.0000000   0.0833333   0.2916667), wk =   0.0034722
        k(   32) = (   0.0000000   0.0833333   0.3333333), wk =   0.0034722
        k(   33) = (   0.0000000   0.0833333   0.3750000), wk =   0.0034722
        k(   34) = (   0.0000000   0.0833333   0.4166667), wk =   0.0034722
        k(   35) = (   0.0000000   0.0833333   0.4583333), wk =   0.0034722
        k(   36) = (   0.0000000   0.0833333  -0.5000000), wk =   0.0017361
        k(   37) = (   0.0000000   0.1250000   0.1250000), wk =   0.0017361
        k(   38) = (   0.0000000   0.1250000   0.1666667), wk =   0.0034722
        k(   39) = (   0.0000000   0.1250000   0.2083333), wk =   0.0034722
        k(   40) = (   0.0000000   0.1250000   0.2500000), wk =   0.0034722
        k(   41) = (   0.0000000   0.1250000   0.2916667), wk =   0.0034722
        k(   42) = (   0.0000000   0.1250000   0.3333333), wk =   0.0034722
        k(   43) = (   0.0000000   0.1250000   0.3750000), wk =   0.0034722
        k(   44) = (   0.0000000   0.1250000   0.4166667), wk =   0.0034722
        k(   45) = (   0.0000000   0.1250000   0.4583333), wk =   0.0034722
        k(   46) = (   0.0000000   0.1250000  -0.5000000), wk =   0.0017361
        k(   47) = (   0.0000000   0.1666667   0.1666667), wk =   0.0017361
        k(   48) = (   0.0000000   0.1666667   0.2083333), wk =   0.0034722
        k(   49) = (   0.0000000   0.1666667   0.2500000), wk =   0.0034722
        k(   50) = (   0.0000000   0.1666667   0.2916667), wk =   0.0034722
        k(   51) = (   0.0000000   0.1666667   0.3333333), wk =   0.0034722
        k(   52) = (   0.0000000   0.1666667   0.3750000), wk =   0.0034722
        k(   53) = (   0.0000000   0.1666667   0.4166667), wk =   0.0034722
        k(   54) = (   0.0000000   0.1666667   0.4583333), wk =   0.0034722
        k(   55) = (   0.0000000   0.1666667  -0.5000000), wk =   0.0017361
        k(   56) = (   0.0000000   0.2083333   0.2083333), wk =   0.0017361
        k(   57) = (   0.0000000   0.2083333   0.2500000), wk =   0.0034722
        k(   58) = (   0.0000000   0.2083333   0.2916667), wk =   0.0034722
        k(   59) = (   0.0000000   0.2083333   0.3333333), wk =   0.0034722
        k(   60) = (   0.0000000   0.2083333   0.3750000), wk =   0.0034722
[...]
        k(  441) = (   0.3750000   0.4166667   0.4583333), wk =   0.0069444
        k(  442) = (   0.3750000   0.4166667  -0.5000000), wk =   0.0034722
        k(  443) = (   0.3750000   0.4583333   0.4583333), wk =   0.0034722
        k(  444) = (   0.3750000   0.4583333  -0.5000000), wk =   0.0034722
        k(  445) = (   0.3750000  -0.5000000  -0.5000000), wk =   0.0008681
        k(  446) = (   0.4166667   0.4166667   0.4166667), wk =   0.0011574
        k(  447) = (   0.4166667   0.4166667   0.4583333), wk =   0.0034722
        k(  448) = (   0.4166667   0.4166667  -0.5000000), wk =   0.0017361
        k(  449) = (   0.4166667   0.4583333   0.4583333), wk =   0.0034722
        k(  450) = (   0.4166667   0.4583333  -0.5000000), wk =   0.0034722
        k(  451) = (   0.4166667  -0.5000000  -0.5000000), wk =   0.0008681
        k(  452) = (   0.4583333   0.4583333   0.4583333), wk =   0.0011574
        k(  453) = (   0.4583333   0.4583333  -0.5000000), wk =   0.0017361
        k(  454) = (   0.4583333  -0.5000000  -0.5000000), wk =   0.0008681
        k(  455) = (  -0.5000000  -0.5000000  -0.5000000), wk =   0.0001447

                       cryst. coord.
        k(    1) = (   0.0000000   0.0000000   0.0000000), wk =   0.0001447
        k(    2) = (   0.0000000   0.0000000   0.0416667), wk =   0.0008681
[...]
        k(   47) = (   0.0000000   0.1648985   0.1648985), wk =   0.0017361
        k(   48) = (   0.0000000   0.1648985   0.2061231), wk =   0.0034722
        k(   49) = (   0.0000000   0.1648985   0.2473477), wk =   0.0034722
        k(   50) = (   0.0000000   0.1648985   0.2885724), wk =   0.0034722
        k(   51) = (   0.0000000   0.1648985   0.3297970), wk =   0.0034722
        k(   52) = (   0.0000000   0.1648985   0.3710216), wk =   0.0034722
        k(   53) = (   0.0000000   0.1648985   0.4122462), wk =   0.0034722
        k(   54) = (   0.0000000   0.1648985   0.4534708), wk =   0.0034722
        k(   55) = (   0.0000000   0.1648985  -0.4946955), wk =   0.0017361
        k(   56) = (   0.0000000   0.2061231   0.2061231), wk =   0.0017361
        k(   57) = (   0.0000000   0.2061231   0.2473477), wk =   0.0034722
        k(   58) = (   0.0000000   0.2061231   0.2885724), wk =   0.0034722
        k(   59) = (   0.0000000   0.2061231   0.3297970), wk =   0.0034722
        k(   60) = (   0.0000000   0.2061231   0.3710216), wk =   0.0034722
[...]
        k(  441) = (   0.3710216   0.4122462   0.4534708), wk =   0.0069444
        k(  442) = (   0.3710216   0.4122462  -0.4946955), wk =   0.0034722
        k(  443) = (   0.3710216   0.4534708   0.4534708), wk =   0.0034722
        k(  444) = (   0.3710216   0.4534708  -0.4946955), wk =   0.0034722
        k(  445) = (   0.3710216  -0.4946955  -0.4946955), wk =   0.0008681
        k(  446) = (   0.4122462   0.4122462   0.4122462), wk =   0.0011574
        k(  447) = (   0.4122462   0.4122462   0.4534708), wk =   0.0034722
        k(  448) = (   0.4122462   0.4122462  -0.4946955), wk =   0.0017361
        k(  449) = (   0.4122462   0.4534708   0.4534708), wk =   0.0034722
        k(  450) = (   0.4122462   0.4534708  -0.4946955), wk =   0.0034722
        k(  451) = (   0.4122462  -0.4946955  -0.4946955), wk =   0.0008681
        k(  452) = (   0.4534708   0.4534708   0.4534708), wk =   0.0011574
        k(  453) = (   0.4534708   0.4534708  -0.4946955), wk =   0.0017361
        k(  454) = (   0.4534708  -0.4946955  -0.4946955), wk =   0.0008681
        k(  455) = (  -0.4946955  -0.4946955  -0.4946955), wk =   0.0001447

                       cryst. coord.
        k(    1) = (   0.0000000   0.0000000   0.0000000), wk =   0.0001447
        k(    2) = (   0.0000000   0.0000000   0.0416667), wk =   0.0008681
        k(    3) = (   0.0000000   0.0000000   0.0833333), wk =   0.0008681
        k(    4) = (   0.0000000   0.0000000   0.1250000), wk =   0.0008681
        k(    5) = (   0.0000000   0.0000000   0.1666667), wk =   0.0008681
        k(    6) = (   0.0000000   0.0000000   0.2083333), wk =   0.0008681
        k(    7) = (   0.0000000   0.0000000   0.2500000), wk =   0.0008681
        k(    8) = (   0.0000000   0.0000000   0.2916667), wk =   0.0008681
        k(    9) = (   0.0000000   0.0000000   0.3333333), wk =   0.0008681
        k(   10) = (   0.0000000   0.0000000   0.3750000), wk =   0.0008681
        k(   11) = (   0.0000000   0.0000000   0.4166667), wk =   0.0008681
        k(   12) = (   0.0000000   0.0000000   0.4583333), wk =   0.0008681
        k(   13) = (   0.0000000   0.0000000  -0.5000000), wk =   0.0004340
        k(   14) = (   0.0000000   0.0416667   0.0416667), wk =   0.0017361
        k(   15) = (   0.0000000   0.0416667   0.0833333), wk =   0.0034722
        k(   16) = (   0.0000000   0.0416667   0.1250000), wk =   0.0034722
        k(   17) = (   0.0000000   0.0416667   0.1666667), wk =   0.0034722
        k(   18) = (   0.0000000   0.0416667   0.2083333), wk =   0.0034722
        k(   19) = (   0.0000000   0.0416667   0.2500000), wk =   0.0034722
        k(   20) = (   0.0000000   0.0416667   0.2916667), wk =   0.0034722
        k(   21) = (   0.0000000   0.0416667   0.3333333), wk =   0.0034722
        k(   22) = (   0.0000000   0.0416667   0.3750000), wk =   0.0034722
        k(   23) = (   0.0000000   0.0416667   0.4166667), wk =   0.0034722
        k(   24) = (   0.0000000   0.0416667   0.4583333), wk =   0.0034722
        k(   25) = (   0.0000000   0.0416667  -0.5000000), wk =   0.0017361
        k(   26) = (   0.0000000   0.0833333   0.0833333), wk =   0.0017361
        k(   27) = (   0.0000000   0.0833333   0.1250000), wk =   0.0034722
        k(   28) = (   0.0000000   0.0833333   0.1666667), wk =   0.0034722
        k(   29) = (   0.0000000   0.0833333   0.2083333), wk =   0.0034722
        k(   30) = (   0.0000000   0.0833333   0.2500000), wk =   0.0034722
        k(   31) = (   0.0000000   0.0833333   0.2916667), wk =   0.0034722
        k(   32) = (   0.0000000   0.0833333   0.3333333), wk =   0.0034722
        k(   33) = (   0.0000000   0.0833333   0.3750000), wk =   0.0034722
        k(   34) = (   0.0000000   0.0833333   0.4166667), wk =   0.0034722
        k(   35) = (   0.0000000   0.0833333   0.4583333), wk =   0.0034722
        k(   36) = (   0.0000000   0.0833333  -0.5000000), wk =   0.0017361
        k(   37) = (   0.0000000   0.1250000   0.1250000), wk =   0.0017361
        k(   38) = (   0.0000000   0.1250000   0.1666667), wk =   0.0034722
        k(   39) = (   0.0000000   0.1250000   0.2083333), wk =   0.0034722
        k(   40) = (   0.0000000   0.1250000   0.2500000), wk =   0.0034722
        k(   41) = (   0.0000000   0.1250000   0.2916667), wk =   0.0034722
        k(   42) = (   0.0000000   0.1250000   0.3333333), wk =   0.0034722
        k(   43) = (   0.0000000   0.1250000   0.3750000), wk =   0.0034722
        k(   44) = (   0.0000000   0.1250000   0.4166667), wk =   0.0034722
        k(   45) = (   0.0000000   0.1250000   0.4583333), wk =   0.0034722
        k(   46) = (   0.0000000   0.1250000  -0.5000000), wk =   0.0017361
        k(   47) = (   0.0000000   0.1666667   0.1666667), wk =   0.0017361
        k(   48) = (   0.0000000   0.1666667   0.2083333), wk =   0.0034722
        k(   49) = (   0.0000000   0.1666667   0.2500000), wk =   0.0034722
        k(   50) = (   0.0000000   0.1666667   0.2916667), wk =   0.0034722
        k(   51) = (   0.0000000   0.1666667   0.3333333), wk =   0.0034722
        k(   52) = (   0.0000000   0.1666667   0.3750000), wk =   0.0034722
        k(   53) = (   0.0000000   0.1666667   0.4166667), wk =   0.0034722
        k(   54) = (   0.0000000   0.1666667   0.4583333), wk =   0.0034722
        k(   55) = (   0.0000000   0.1666667  -0.5000000), wk =   0.0017361
        k(   56) = (   0.0000000   0.2083333   0.2083333), wk =   0.0017361
        k(   57) = (   0.0000000   0.2083333   0.2500000), wk =   0.0034722
        k(   58) = (   0.0000000   0.2083333   0.2916667), wk =   0.0034722
        k(   59) = (   0.0000000   0.2083333   0.3333333), wk =   0.0034722
        k(   60) = (   0.0000000   0.2083333   0.3750000), wk =   0.0034722
[...]
        k(  441) = (   0.3750000   0.4166667   0.4583333), wk =   0.0069444
        k(  442) = (   0.3750000   0.4166667  -0.5000000), wk =   0.0034722
        k(  443) = (   0.3750000   0.4583333   0.4583333), wk =   0.0034722
        k(  444) = (   0.3750000   0.4583333  -0.5000000), wk =   0.0034722
        k(  445) = (   0.3750000  -0.5000000  -0.5000000), wk =   0.0008681
        k(  446) = (   0.4166667   0.4166667   0.4166667), wk =   0.0011574
        k(  447) = (   0.4166667   0.4166667   0.4583333), wk =   0.0034722
        k(  448) = (   0.4166667   0.4166667  -0.5000000), wk =   0.0017361
        k(  449) = (   0.4166667   0.4583333   0.4583333), wk =   0.0034722
        k(  450) = (   0.4166667   0.4583333  -0.5000000), wk =   0.0034722
        k(  451) = (   0.4166667  -0.5000000  -0.5000000), wk =   0.0008681
        k(  452) = (   0.4583333   0.4583333   0.4583333), wk =   0.0011574
        k(  453) = (   0.4583333   0.4583333  -0.5000000), wk =   0.0017361
        k(  454) = (   0.4583333  -0.5000000  -0.5000000), wk =   0.0008681
        k(  455) = (  -0.5000000  -0.5000000  -0.5000000), wk =   0.0001447

     Initial potential from superposition of free atoms

     starting charge      43.9991, renormalised to      44.0000

[...]

     Starting wfcs are   36 randomized atomic wfcs
     Checking if some PAW data can be deallocated...

     Self-consistent Calculation

[...]

     c_bands:  2 eigenvalues not converged
     c_bands:  1 eigenvalues not converged
     c_bands:  2 eigenvalues not converged
     c_bands:  2 eigenvalues not converged
     c_bands:  2 eigenvalues not converged
     c_bands:  1 eigenvalues not converged
     c_bands:  1 eigenvalues not converged
     c_bands:  2 eigenvalues not converged
     c_bands:  2 eigenvalues not converged
     c_bands:  1 eigenvalues not converged
     c_bands:  1 eigenvalues not converged
     c_bands:  1 eigenvalues not converged
     c_bands:  1 eigenvalues not converged
     c_bands:  1 eigenvalues not converged
     c_bands:  1 eigenvalues not converged
     c_bands:  1 eigenvalues not converged
     c_bands:  2 eigenvalues not converged
     c_bands:  2 eigenvalues not converged
     c_bands:  2 eigenvalues not converged
     c_bands:  1 eigenvalues not converged
     c_bands:  2 eigenvalues not converged
     c_bands:  2 eigenvalues not converged
     c_bands:  2 eigenvalues not converged
     ethr =  1.00E-06,  avg # of iterations = 14.3

[...]

     total energy              =    -871.22331022 Ry
     estimated scf accuracy    <          6.4E-13 Ry

     iteration # 16     ecut=    69.82 Ry     beta= 0.33
     Davidson diagonalization with overlap

     ethr =  1.00E-13,  avg # of iterations =  1.0

[...]

     End of self-consistent calculation

[...]

          k = 0.4535-0.4947-0.4947 (  3196 PWs)   bands (ev):

[...]

          k =-0.4947-0.4947-0.4947 (  3184 PWs)   bands (ev):

     6.9999   6.9999   6.9999   6.9999   8.9194   8.9194   8.9194   8.9194
     8.9194   8.9194   8.9194   8.9194  10.2902  10.2902  10.2902  10.2902
    10.2902  10.2902  10.2902  10.2902  11.1182  11.1182  11.1182  11.1182
    15.5941  15.5941

     occupation numbers
     1.0000   1.0000   1.0000   1.0000   1.0000   1.0000   1.0000   1.0000
     1.0000   1.0000   1.0000   1.0000   1.0000   1.0000   1.0000   1.0000
     1.0000   1.0000   1.0000   1.0000   1.0000   1.0000   1.0000   1.0000
     0.0000   0.0000

     the Fermi energy is    11.9891 ev

!    total energy              =    -871.22331022 Ry
     total all-electron energy =    -13258.742374 Ry
     estimated scf accuracy    <          1.3E-14 Ry
     smearing contrib. (-TS)   =      -0.00005037 Ry
     internal energy E=F+TS    =    -871.22325986 Ry

     The total energy is F=E-TS. E is the sum of the following terms:
     one-electron contribution =    -117.46667087 Ry
     hartree contribution      =     124.88033959 Ry
     xc contribution           =    -183.77022160 Ry
     ewald contribution        =    -321.83516119 Ry
     one-center paw contrib.   =    -373.03154578 Ry
      -> PAW hartree energy AE =      98.42621236 Ry
      -> PAW hartree energy PS =     -97.71192310 Ry
      -> PAW xc energy AE      =    -140.28821904 Ry
      -> PAW xc energy PS      =      46.31604334 Ry
      -> total E_H with PAW    =     125.59462885 Ry
      -> total E_XC with PAW   =    -277.74239731 Ry

     convergence has been achieved in  16 iterations

[...]

     Forces acting on atoms (cartesian axes, Ry/au):

     atom    1 type  1   force =     0.00000000    0.00000000    0.00000000
     atom    2 type  1   force =     0.00000000    0.00000000    0.00000000
     atom    3 type  1   force =     0.00000000    0.00000000    0.00000000
     atom    4 type  1   force =     0.00000000    0.00000000   -0.00000000
     The non-local contrib.  to forces
     atom    1 type  1   force =     0.00000000    0.00000000    0.00000000
     atom    2 type  1   force =     0.00000000    0.00000000    0.00000000
     atom    3 type  1   force =     0.00000000    0.00000000    0.00000000
     atom    4 type  1   force =     0.00000000    0.00000000    0.00000000
     The ionic contribution  to forces
     atom    1 type  1   force =     0.00000000    0.00000000    0.00000000
     atom    2 type  1   force =     0.00000000   -0.00000000   -0.00000000
     atom    3 type  1   force =    -0.00000000    0.00000000   -0.00000000
     atom    4 type  1   force =    -0.00000000   -0.00000000    0.00000000
     The local contribution  to forces
     atom    1 type  1   force =     0.00000000   -0.00000000   -0.00000000
     atom    2 type  1   force =     0.00000000   -0.00000000   -0.00000000
     atom    3 type  1   force =    -0.00000000   -0.00000000   -0.00000000
     atom    4 type  1   force =    -0.00000000   -0.00000000   -0.00000000
     The core correction contribution to forces
     atom    1 type  1   force =     0.00000000   -0.00000000   -0.00000000
     atom    2 type  1   force =    -0.00000000   -0.00000000   -0.00000000
     atom    3 type  1   force =    -0.00000000    0.00000000   -0.00000000
     atom    4 type  1   force =    -0.00000000   -0.00000000   -0.00000000
     The Hubbard contrib.    to forces
     atom    1 type  1   force =     0.00000000    0.00000000    0.00000000
     atom    2 type  1   force =     0.00000000    0.00000000    0.00000000
     atom    3 type  1   force =     0.00000000    0.00000000    0.00000000
     atom    4 type  1   force =     0.00000000    0.00000000    0.00000000
     The SCF correction term to forces
     atom    1 type  1   force =    -0.00000000   -0.00000000    0.00000000
     atom    2 type  1   force =    -0.00000000    0.00000000    0.00000000
     atom    3 type  1   force =     0.00000000   -0.00000000    0.00000000
     atom    4 type  1   force =     0.00000000    0.00000000    0.00000000

     Total force =     0.000000     Total SCF correction =     0.000000

     Computing stress (Cartesian axis) and pressure

     Non-local corr. energy    =       2.40665183 Ry

          total   stress  (Ry/bohr**3)                   (kbar)     P=       -0.28
  -0.00000193   0.00000000   0.00000000           -0.28        0.00        0.00
   0.00000000  -0.00000193   0.00000000            0.00       -0.28        0.00
   0.00000000   0.00000000  -0.00000193            0.00        0.00       -0.28

     kinetic stress (kbar)  23943.77      0.00      0.00
                                0.00  23943.77      0.00
                                0.00      0.00  23943.77

     local   stress (kbar)  21565.19      0.00      0.00
                                0.00  21565.19      0.00
                                0.00      0.00  21565.19

     nonloc. stress (kbar)  -2867.67      0.00      0.00
                                0.00  -2867.67      0.00
                                0.00      0.00  -2867.67

     hartree stress (kbar)  18680.39     -0.00      0.00
                               -0.00  18680.39      0.00
                                0.00      0.00  18680.39

     exc-cor stress (kbar)  33415.84     -0.00      0.00
                               -0.00  33415.84      0.00
                                0.00      0.00  33415.84

     corecor stress (kbar) -46959.08      0.00     -0.00
                                0.00 -46959.08      0.00
                               -0.00      0.00 -46959.08

     ewald   stress (kbar) -48142.15      0.00     -0.00
                                0.00 -48142.15     -0.00
                               -0.00     -0.00 -48142.15

     hubbard stress (kbar)      0.00      0.00      0.00
                                0.00      0.00      0.00
                                0.00      0.00      0.00

     DFT-D   stress (kbar)      0.00      0.00      0.00
                                0.00      0.00      0.00
                                0.00      0.00      0.00

     XDM     stress (kbar)      0.00      0.00      0.00
                                0.00      0.00      0.00
                                0.00      0.00      0.00

     dft-nl  stress (kbar)    363.42     -0.00     -0.00
                               -0.00    363.42     -0.00
                               -0.00     -0.00    363.42

     TS-vdW  stress (kbar)      0.00      0.00      0.00
                                0.00      0.00      0.00
                                0.00      0.00      0.00

     MDB     stress (kbar)      0.00      0.00      0.00
                                0.00      0.00      0.00
                                0.00      0.00      0.00

     3D-RISM stress (kbar)      0.00      0.00      0.00
                                0.00      0.00      0.00
                                0.00      0.00      0.00

     Writing all to output data dir ./tmp/espresso_950.save/

     General routines

     Parallel routines

     PAW routines

   This run was terminated on:  12: 7:45   3Oct2024

   JOB DONE.