     Program PWSCF v.7.2 starts on 20Jun2024 at  9:42:35

     Reading input from Cu-850-7.746788121318915.pwi
Warning: card &CELL ignored
Warning: card / ignored

     Current dimensions of program PWSCF are:
     Max number of different atomic species (ntypx) = 10
     Max number of k-points (npk) =  40000
     Max angular momentum in pseudopotentials (lmaxx) =  4
     file Cu.beef-dn-kjpaw_psl.1.0.0.UPF: wavefunction(s)  4S 3D renormalized
     file C.beef-n-kjpaw_psl.1.0.0.UPF: wavefunction(s)  2S 2P renormalized
     file O.beef-n-kjpaw_psl.1.0.0.UPF: wavefunction(s)  2P renormalized

     IMPORTANT: XC functional enforced from input :
     Exchange-correlation= BEEF-VDW
                           (   1   4  43  14   2   0   0)
     Any further DFT definition will be discarded
     Please, verify this is what you really want

     Message from routine setup:
     using ibrav=0 with symmetry is DISCOURAGED, use correct ibrav instead

     K-points division:     npool     =       2
     R & G space division:  proc/nbgrp/npool/nimage =      64
     Subspace diagonalization in iterative solution of the eigenvalue problem:
     one sub-group per band group will be used

     Using Slab Decomposition

     Title:
     Cu-850-7.746788121318915

     bravais-lattice index     =            0
     lattice parameter (alat)  =      14.6393  a.u.
     unit-cell volume          =    7479.3565 (a.u.)^3
     number of atoms/cell      =           38
     number of atomic types    =            3
     number of electrons       =       406.00
     number of Kohn-Sham states=          244
     kinetic-energy cutoff     =      62.4738  Ry
     charge density cutoff     =     624.7385  Ry
     scf convergence threshold =      7.3E-12
     mixing beta               =       0.3333
     number of iterations used =           12  local-TF  mixing
     energy convergence thresh.=      7.3E-07
     force convergence thresh. =      3.9E-04
     Exchange-correlation= BEEF-VDW
                           (   1   4  43  14   2   0   0)
     nstep                     =           50

     Effective Screening Medium Method
     Boundary Conditions: Vacuum-Slab-Metal
     total charge in unit cell        =   0.0000
     grid points for fit at edges     =        4

     celldm(1)=  14.639308  celldm(2)=   0.000000  celldm(3)=   0.000000
     celldm(4)=   0.000000  celldm(5)=   0.000000  celldm(6)=   0.000000

     crystal axes: (cart. coord. in units of alat)
               a(1) = (   1.000000   0.000000   0.000000 )
               a(2) = (   0.500000   0.866025   0.000000 )
               a(3) = (   0.000000   0.000000   2.752783 )

     reciprocal axes: (cart. coord. in units 2 pi/alat)
               b(1) = (  1.000000 -0.577350  0.000000 )
               b(2) = (  0.000000  1.154701  0.000000 )
               b(3) = (  0.000000  0.000000  0.363269 )

     PseudoPot. # 1 for Cu read from file:
     /home/k0227/k022716/QE/pseudo/beef/Cu.beef-dn-kjpaw_psl.1.0.0.UPF
     MD5 check sum: 5c2e06f1363dd15696904a521997ce16
     Pseudo is Projector augmented-wave + core cor, Zval = 11.0
     Generated using 'atomic' code by A. Dal Corso  v.7.2
     Shape of augmentation charge: PSQ
     Using radial grid of 1199 points,  6 beta functions with:
                l(1) =   0
                l(2) =   0
                l(3) =   1
                l(4) =   1
                l(5) =   2
                l(6) =   2
     Q(r) pseudized with 0 coefficients

     PseudoPot. # 2 for C  read from file:
     /home/k0227/k022716/QE/pseudo/beef/C.beef-n-kjpaw_psl.1.0.0.UPF
     MD5 check sum: 3242be9e0015b82b0ed5ff45e65f34ec
     Pseudo is Projector augmented-wave + core cor, Zval =  4.0
     Generated using 'atomic' code by A. Dal Corso  v.7.2
     Shape of augmentation charge: PSQ
     Using radial grid of 1073 points,  4 beta functions with:
                l(1) =   0
                l(2) =   0
                l(3) =   1
                l(4) =   1
     Q(r) pseudized with 0 coefficients

     PseudoPot. # 3 for O  read from file:
     /home/k0227/k022716/QE/pseudo/beef/O.beef-n-kjpaw_psl.1.0.0.UPF
     MD5 check sum: be449223b47fa93bb079dbf01a63c6ce
     Pseudo is Projector augmented-wave + core cor, Zval =  6.0
     Generated using 'atomic' code by A. Dal Corso  v.7.2
     Shape of augmentation charge: PSQ
     Using radial grid of 1095 points,  4 beta functions with:
                l(1) =   0
                l(2) =   0
                l(3) =   1
                l(4) =   1
     Q(r) pseudized with 0 coefficients

     atomic species   valence    mass     pseudopotential
        Cu            11.00    63.54600     Cu( 1.00)
        C              4.00    12.01100     C ( 1.00)
        O              6.00    15.99900     O ( 1.00)

      2 Sym. Ops. (no inversion) found ( 1 have fractional translation)

                                    s                        frac. trans.

      isym =  1     identity

 cryst.   s( 1) = (     1          0          0      )
                  (     0          1          0      )
                  (     0          0          1      )

 cart.    s( 1) = (  1.0000000  0.0000000  0.0000000 )
                  (  0.0000000  1.0000000  0.0000000 )
                  (  0.0000000  0.0000000  1.0000000 )

      isym =  2     inv. 180 deg rotation - cart. axis [1,0,0]

 cryst.   s( 2) = (    -1          0          0      )    f =( -0.3333333 )
                  (    -1          1          0      )       (  0.0000000 )
                  (     0          0          1      )       (  0.0000000 )

 cart.    s( 2) = ( -1.0000000  0.0000000  0.0000000 )    f =( -0.3333333 )
                  (  0.0000000  1.0000000  0.0000000 )       (  0.0000000 )
                  (  0.0000000  0.0000000  1.0000000 )       (  0.0000000 )

   Cartesian axes

     site n.     atom                  positions (alat units)
         1           Cu  tau(   1) = (   0.0000000   0.0000000  -0.8211657  )
         2           Cu  tau(   2) = (   0.3333333   0.0000000  -0.8211657  )
         3           Cu  tau(   3) = (   0.6666667   0.0000000  -0.8211657  )
         4           Cu  tau(   4) = (   0.1666667   0.2886751  -0.8211657  )
         5           Cu  tau(   5) = (   0.5000000   0.2886751  -0.8211657  )
         6           Cu  tau(   6) = (   0.8333333   0.2886751  -0.8211657  )
         7           Cu  tau(   7) = (   0.3333333   0.5773503  -0.8211657  )
         8           Cu  tau(   8) = (   0.6666667   0.5773503  -0.8211657  )
         9           Cu  tau(   9) = (   1.0000000   0.5773503  -0.8211657  )
        10           Cu  tau(  10) = (   0.1666667   0.0962250  -0.5490002  )
        11           Cu  tau(  11) = (   0.5000000   0.0962250  -0.5490002  )
        12           Cu  tau(  12) = (   0.8333333   0.0962250  -0.5490002  )
        13           Cu  tau(  13) = (   0.3333333   0.3849002  -0.5490002  )
        14           Cu  tau(  14) = (   0.6666667   0.3849002  -0.5490002  )
        15           Cu  tau(  15) = (   1.0000000   0.3849002  -0.5490002  )
        16           Cu  tau(  16) = (   0.5000000   0.6735753  -0.5490002  )
        17           Cu  tau(  17) = (   0.8333333   0.6735753  -0.5490002  )
        18           Cu  tau(  18) = (   1.1666667   0.6735753  -0.5490002  )
        19           Cu  tau(  19) = (   0.0000000   0.1924501  -0.2768347  )
        20           Cu  tau(  20) = (   0.3333333   0.1924501  -0.2768347  )
        21           Cu  tau(  21) = (   0.6666667   0.1924501  -0.2768347  )
        22           Cu  tau(  22) = (   0.1666667   0.4811252  -0.2768347  )
        23           Cu  tau(  23) = (   0.5000000   0.4811252  -0.2768347  )
        24           Cu  tau(  24) = (   0.8333333   0.4811252  -0.2768347  )
        25           Cu  tau(  25) = (   0.3333333   0.7698004  -0.2768347  )
        26           Cu  tau(  26) = (   0.6666667   0.7698004  -0.2768347  )
        27           Cu  tau(  27) = (   1.0000000   0.7698004  -0.2768347  )
        28           Cu  tau(  28) = (   0.0000000   0.0000000  -0.0046691  )
        29           Cu  tau(  29) = (   0.3333333   0.0000000  -0.0046691  )
        30           Cu  tau(  30) = (   0.6666667   0.0000000  -0.0046691  )
        31           Cu  tau(  31) = (   0.1666667   0.2886751  -0.0046691  )
        32           Cu  tau(  32) = (   0.5000000   0.2886751  -0.0046691  )
        33           Cu  tau(  33) = (   0.8333333   0.2886751  -0.0046691  )
        34           Cu  tau(  34) = (   0.3333333   0.5773503  -0.0046691  )
        35           Cu  tau(  35) = (   0.6666667   0.5773503  -0.0046691  )
        36           Cu  tau(  36) = (   1.0000000   0.5773503  -0.0046691  )
        37           C   tau(  37) = (   0.6666667   0.2886751   0.1001477  )
        38           O   tau(  38) = (   0.6666667   0.2886751   0.2470481  )

   Crystallographic axes

     site n.     atom                  positions (cryst. coord.)
         1           Cu  tau(   1) = (  0.0000000  0.0000000 -0.2983038  )
         2           Cu  tau(   2) = (  0.3333333  0.0000000 -0.2983038  )
         3           Cu  tau(   3) = (  0.6666667  0.0000000 -0.2983038  )
         4           Cu  tau(   4) = (  0.0000000  0.3333333 -0.2983038  )
         5           Cu  tau(   5) = (  0.3333333  0.3333333 -0.2983038  )
         6           Cu  tau(   6) = (  0.6666667  0.3333333 -0.2983038  )
         7           Cu  tau(   7) = ( -0.0000000  0.6666667 -0.2983038  )
         8           Cu  tau(   8) = (  0.3333333  0.6666667 -0.2983038  )
         9           Cu  tau(   9) = (  0.6666667  0.6666667 -0.2983038  )
        10           Cu  tau(  10) = (  0.1111111  0.1111111 -0.1994346  )
        11           Cu  tau(  11) = (  0.4444444  0.1111111 -0.1994346  )
        12           Cu  tau(  12) = (  0.7777778  0.1111111 -0.1994346  )
        13           Cu  tau(  13) = (  0.1111111  0.4444444 -0.1994346  )
        14           Cu  tau(  14) = (  0.4444444  0.4444444 -0.1994346  )
        15           Cu  tau(  15) = (  0.7777778  0.4444444 -0.1994346  )
        16           Cu  tau(  16) = (  0.1111111  0.7777778 -0.1994346  )
        17           Cu  tau(  17) = (  0.4444444  0.7777778 -0.1994346  )
        18           Cu  tau(  18) = (  0.7777778  0.7777778 -0.1994346  )
        19           Cu  tau(  19) = ( -0.1111111  0.2222222 -0.1005654  )
        20           Cu  tau(  20) = (  0.2222222  0.2222222 -0.1005654  )
        21           Cu  tau(  21) = (  0.5555556  0.2222222 -0.1005654  )
        22           Cu  tau(  22) = ( -0.1111111  0.5555556 -0.1005654  )
        23           Cu  tau(  23) = (  0.2222222  0.5555556 -0.1005654  )
        24           Cu  tau(  24) = (  0.5555556  0.5555556 -0.1005654  )
        25           Cu  tau(  25) = ( -0.1111111  0.8888889 -0.1005654  )
        26           Cu  tau(  26) = (  0.2222222  0.8888889 -0.1005654  )
        27           Cu  tau(  27) = (  0.5555556  0.8888889 -0.1005654  )
        28           Cu  tau(  28) = (  0.0000000  0.0000000 -0.0016962  )
        29           Cu  tau(  29) = (  0.3333333  0.0000000 -0.0016962  )
        30           Cu  tau(  30) = (  0.6666667  0.0000000 -0.0016962  )
[...]
     atom   33 type  1   force =     4.14883936   -0.13503392  513.95526382
     atom   34 type  1   force =    -0.66377830    0.42231299  516.41220512
     atom   35 type  1   force =     0.00000000    2.24856974  514.99834657
     atom   36 type  1   force =     0.66377830    0.42231299  516.41220512
     atom   37 type  2   force =     0.00000000    0.06061718  206.37672956
     atom   38 type  3   force =     0.00000000   -0.05433763  336.02374929
     The local contribution  to forces
     atom    1 type  1   force =    -0.16096716   -0.00636725  -74.28922356
     atom    2 type  1   force =     0.16096716   -0.00636725  -74.28922356
     atom    3 type  1   force =     0.00000000    0.04520834  -74.16095228
     atom    4 type  1   force =    -0.00000001    0.06384573  -74.33807636
     atom    5 type  1   force =     0.07066752   -0.02638733  -74.18588287
     atom    6 type  1   force =    -0.07066754   -0.02638733  -74.18588287
     atom    7 type  1   force =     0.01010453    0.02298881  -74.24825376
     atom    8 type  1   force =     0.00000000   -0.09566695  -74.19832682
     atom    9 type  1   force =    -0.01010452    0.02298881  -74.24825376
     atom   10 type  1   force =    -0.00000001   -0.01994752 -222.40405448
     atom   11 type  1   force =     0.13271410   -0.00757733 -220.54084719
     atom   12 type  1   force =    -0.13271412   -0.00757733 -220.54084719
     atom   13 type  1   force =     0.10320264    0.03259235 -221.38663434
     atom   14 type  1   force =     0.00000000   -0.01140030 -220.68453834
     atom   15 type  1   force =    -0.10320264    0.03259235 -221.38663434
     atom   16 type  1   force =    -0.01028494   -0.05989357 -221.25725296
     atom   17 type  1   force =     0.01028493   -0.05989357 -221.25725296
     atom   18 type  1   force =    -0.00000001    0.10412617 -221.13387265
     atom   19 type  1   force =    -0.50241443    0.06991482 -369.87104512
     atom   20 type  1   force =     0.50241443    0.06991482 -369.87104512
     atom   21 type  1   force =     0.00000000    0.05588091 -366.90471030
     atom   22 type  1   force =    -0.00000001    0.13526958 -368.51259725
     atom   23 type  1   force =     0.27817183   -0.17980059 -369.10015532
     atom   24 type  1   force =    -0.27817184   -0.17980059 -369.10015532
     atom   25 type  1   force =    -0.19228968    0.19380400 -368.27137141
     atom   26 type  1   force =     0.00000000   -0.31982294 -368.22516259
     atom   27 type  1   force =     0.19228968    0.19380400 -368.27137141
     atom   28 type  1   force =    -0.62697110    0.38648709 -516.66806056
     atom   29 type  1   force =     0.62697110    0.38648709 -516.66806056
     atom   30 type  1   force =     0.00000000    1.89863084 -514.37523328
     atom   31 type  1   force =    -0.00000001    0.01791087 -517.41102421
     atom   32 type  1   force =     4.01308133    0.13418642 -514.04206073
     atom   33 type  1   force =    -4.01308135    0.13418642 -514.04206073
     atom   34 type  1   force =     0.66274485   -0.41808241 -516.51619301
     atom   35 type  1   force =     0.00000000   -2.15144218 -515.15937390
     atom   36 type  1   force =    -0.66274484   -0.41808241 -516.51619301
     atom   37 type  2   force =     0.00000000   -0.06211274 -206.93072624
     atom   38 type  3   force =     0.00000000    0.04080269 -333.36610049
     The core correction contribution to forces
     atom    1 type  1   force =    -0.00010879    0.00028719    0.01654457
     atom    2 type  1   force =     0.00010879    0.00028719    0.01654457
     atom    3 type  1   force =     0.00000000    0.00011456    0.01729837
     atom    4 type  1   force =    -0.00000000   -0.00011684    0.01645951
     atom    5 type  1   force =    -0.00011709   -0.00015051    0.01684958
     atom    6 type  1   force =     0.00011708   -0.00015051    0.01684958
     atom    7 type  1   force =    -0.00014214   -0.00014406    0.01682367
     atom    8 type  1   force =     0.00000000   -0.00007777    0.01700019
     atom    9 type  1   force =     0.00014214   -0.00014406    0.01682367
     atom   10 type  1   force =    -0.00000000    0.00019473    0.00035459
     atom   11 type  1   force =    -0.00031706   -0.00033305   -0.00082036
     atom   12 type  1   force =     0.00031705   -0.00033305   -0.00082036
     atom   13 type  1   force =    -0.00006502   -0.00015701   -0.00035874
     atom   14 type  1   force =     0.00000000    0.00052376    0.00006931
     atom   15 type  1   force =     0.00006502   -0.00015701   -0.00035874
     atom   16 type  1   force =     0.00000949    0.00001544   -0.00024886
     atom   17 type  1   force =    -0.00000950    0.00001544   -0.00024886
     atom   18 type  1   force =    -0.00000000    0.00018167   -0.00008520
     atom   19 type  1   force =    -0.00140433    0.00015172    0.00070135
     atom   20 type  1   force =     0.00140433    0.00015172    0.00070135
     atom   21 type  1   force =     0.00000000   -0.00002517   -0.00440892
     atom   22 type  1   force =    -0.00000000    0.00009574    0.00044228
     atom   23 type  1   force =     0.00043058   -0.00014501   -0.00040838
     atom   24 type  1   force =    -0.00043059   -0.00014501   -0.00040838
     atom   25 type  1   force =    -0.00048229    0.00085640    0.00103644
     atom   26 type  1   force =     0.00000000   -0.00092569    0.00078840
     atom   27 type  1   force =     0.00048230    0.00085640    0.00103644
     atom   28 type  1   force =     0.00029365    0.00000454   -0.01710194
     atom   29 type  1   force =    -0.00029365    0.00000454   -0.01710194
     atom   30 type  1   force =     0.00000000   -0.00179694   -0.01600848
     atom   31 type  1   force =    -0.00000000   -0.00028019   -0.01647017
     atom   32 type  1   force =     0.01210091    0.00034300   -0.00429808
     atom   33 type  1   force =    -0.01210091    0.00034300   -0.00429808
     atom   34 type  1   force =    -0.00021258    0.00024356   -0.01677091
     atom   35 type  1   force =     0.00000000    0.00029803   -0.01666273
     atom   36 type  1   force =     0.00021258    0.00024356   -0.01677091
     atom   37 type  2   force =    -0.00000000    0.00015541   -0.00144393
     atom   38 type  3   force =    -0.00000000   -0.00010988    0.01812118
     The Hubbard contrib.    to forces
     atom    1 type  1   force =     0.00000000    0.00000000    0.00000000
     atom    2 type  1   force =     0.00000000    0.00000000    0.00000000
     atom    3 type  1   force =     0.00000000    0.00000000    0.00000000
     atom    4 type  1   force =     0.00000000    0.00000000    0.00000000
     atom    5 type  1   force =     0.00000000    0.00000000    0.00000000
     atom    6 type  1   force =     0.00000000    0.00000000    0.00000000
     atom    7 type  1   force =     0.00000000    0.00000000    0.00000000
     atom    8 type  1   force =     0.00000000    0.00000000    0.00000000
     atom    9 type  1   force =     0.00000000    0.00000000    0.00000000
     atom   10 type  1   force =     0.00000000    0.00000000    0.00000000
     atom   11 type  1   force =     0.00000000    0.00000000    0.00000000
     atom   12 type  1   force =     0.00000000    0.00000000    0.00000000
     atom   13 type  1   force =     0.00000000    0.00000000    0.00000000
     atom   14 type  1   force =     0.00000000    0.00000000    0.00000000
     atom   15 type  1   force =     0.00000000    0.00000000    0.00000000
     atom   16 type  1   force =     0.00000000    0.00000000    0.00000000
     atom   17 type  1   force =     0.00000000    0.00000000    0.00000000
     atom   18 type  1   force =     0.00000000    0.00000000    0.00000000
     atom   19 type  1   force =     0.00000000    0.00000000    0.00000000
     atom   20 type  1   force =     0.00000000    0.00000000    0.00000000
     atom   21 type  1   force =     0.00000000    0.00000000    0.00000000
     atom   22 type  1   force =     0.00000000    0.00000000    0.00000000
     atom   23 type  1   force =     0.00000000    0.00000000    0.00000000
     atom   24 type  1   force =     0.00000000    0.00000000    0.00000000
     atom   25 type  1   force =     0.00000000    0.00000000    0.00000000
     atom   26 type  1   force =     0.00000000    0.00000000    0.00000000
     atom   27 type  1   force =     0.00000000    0.00000000    0.00000000
     atom   28 type  1   force =     0.00000000    0.00000000    0.00000000
     atom   29 type  1   force =     0.00000000    0.00000000    0.00000000
     atom   30 type  1   force =     0.00000000    0.00000000    0.00000000
     atom   31 type  1   force =     0.00000000    0.00000000    0.00000000
     atom   32 type  1   force =     0.00000000    0.00000000    0.00000000
     atom   33 type  1   force =     0.00000000    0.00000000    0.00000000
     atom   34 type  1   force =     0.00000000    0.00000000    0.00000000
     atom   35 type  1   force =     0.00000000    0.00000000    0.00000000
     atom   36 type  1   force =     0.00000000    0.00000000    0.00000000
     atom   37 type  2   force =     0.00000000    0.00000000    0.00000000
     atom   38 type  3   force =     0.00000000    0.00000000    0.00000000
     The SCF correction term to forces
     atom    1 type  1   force =     0.00000000    0.00000000    0.00000000
     atom    2 type  1   force =     0.00000000    0.00000000    0.00000000
     atom    3 type  1   force =     0.00000000    0.00000000    0.00000000
     atom    4 type  1   force =     0.00000000    0.00000000    0.00000000
     atom    5 type  1   force =     0.00000000    0.00000000    0.00000000
     atom    6 type  1   force =     0.00000000    0.00000000    0.00000000
     atom    7 type  1   force =     0.00000000    0.00000000    0.00000000
     atom    8 type  1   force =     0.00000000    0.00000000    0.00000000
     atom    9 type  1   force =     0.00000000    0.00000000    0.00000000
     atom   10 type  1   force =    -0.00000000   -0.00000004    0.00000006
     atom   11 type  1   force =    -0.00000006   -0.00000005   -0.00000004
     atom   12 type  1   force =     0.00000006   -0.00000005   -0.00000004
     atom   13 type  1   force =     0.00000006    0.00000008    0.00000025
     atom   14 type  1   force =     0.00000000   -0.00000007   -0.00000006
     atom   15 type  1   force =    -0.00000006    0.00000008    0.00000025
     atom   16 type  1   force =    -0.00000013    0.00000010    0.00000006
     atom   17 type  1   force =     0.00000013    0.00000010    0.00000006
     atom   18 type  1   force =    -0.00000000    0.00000003    0.00000004
     atom   19 type  1   force =    -0.00000011    0.00000008    0.00000022
     atom   20 type  1   force =     0.00000011    0.00000008    0.00000022
     atom   21 type  1   force =    -0.00000000    0.00000013    0.00000029
     atom   22 type  1   force =    -0.00000000    0.00000004    0.00000017
     atom   23 type  1   force =     0.00000005   -0.00000007    0.00000021
     atom   24 type  1   force =    -0.00000005   -0.00000007    0.00000021
     atom   25 type  1   force =    -0.00000001   -0.00000003    0.00000013
     atom   26 type  1   force =     0.00000000   -0.00000010    0.00000018
     atom   27 type  1   force =     0.00000001   -0.00000003    0.00000013
     atom   28 type  1   force =    -0.00000003   -0.00000001    0.00000015
     atom   29 type  1   force =     0.00000003   -0.00000001    0.00000015
     atom   30 type  1   force =     0.00000000    0.00000011    0.00000009
     atom   31 type  1   force =    -0.00000000    0.00000012    0.00000041
     atom   32 type  1   force =     0.00000012   -0.00000005    0.00000011
     atom   33 type  1   force =    -0.00000012   -0.00000005    0.00000011
     atom   34 type  1   force =    -0.00000002   -0.00000004    0.00000015
     atom   35 type  1   force =     0.00000000   -0.00000001    0.00000012
     atom   36 type  1   force =     0.00000002   -0.00000004    0.00000015
     atom   37 type  2   force =     0.00000000   -0.00000002    0.00000000
     atom   38 type  3   force =    -0.00000000    0.00000001    0.00000028

     Total force =     0.001289     Total SCF correction =     0.000001
     Energy error            =      1.0E-06 Ry
     Gradient error          =      7.5E-04 Ry/Bohr

     number of scf cycles    =  39
     number of bfgs steps    =  36

     energy             old  =   -7900.8350336328 Ry
     energy             new  =   -7900.8350326341 Ry

     CASE: energy            _new > energy            _old

     new trust radius        =       0.0002534151 bohr
     new conv_thr            =            7.3E-14 Ry

ATOMIC_POSITIONS (angstrom)
Cu            0.0000000000        0.0000000000       -6.3613969092    0   0   0
Cu            2.5822627071        0.0000000000       -6.3613969092    0   0   0
Cu            5.1645254142        0.0000000000       -6.3613969092    0   0   0
Cu            1.2911313536        2.2363051036       -6.3613969092    0   0   0
Cu            3.8733940607        2.2363051036       -6.3613969092    0   0   0
Cu            6.4556567678        2.2363051036       -6.3613969092    0   0   0
Cu            2.5822627071        4.4726102072       -6.3613969092    0   0   0
Cu            5.1645254142        4.4726102072       -6.3613969092    0   0   0
Cu            7.7467881213        4.4726102072       -6.3613969092    0   0   0
Cu            1.2911313536        0.7525400105       -4.2568431163
Cu            3.8681776891        0.7439280503       -4.2837177357
Cu            6.4608731394        0.7439280503       -4.2837177357
Cu            2.5831516108        2.9819969205       -4.2717199477
Cu            5.1645254142        2.9866009506       -4.2807961729
Cu            7.7458992176        2.9819969205       -4.2717199477
Cu            3.8736990549        5.2166034941       -4.2731039467
Cu            6.4553517736        5.2166034941       -4.2731039467
Cu            9.0379194749        5.2194472605       -4.2747619775
Cu           -0.0163644382        1.4999632212       -2.1685617794
Cu            2.5986271453        1.4999632212       -2.1685617794
Cu            5.1645254142        1.4900035259       -2.2143552125
Cu            1.2911313536        3.7282399230       -2.1914438092
Cu            3.8807276697        3.7190727608       -2.1791288650
Cu            6.4483231588        3.7190727608       -2.1791288650
Cu            2.5827897925        5.9676678244       -2.1924629131
Cu            5.1645254142        5.9633738249       -2.1936173350
Cu            7.7462610359        5.9676678244       -2.1924629131
Cu            0.0017596281       -0.0032861787       -0.1070350525
Cu            2.5805030790       -0.0032861787       -0.1070350525
Cu            5.1645254142       -0.0459696953       -0.1180836267
Cu            1.2911313536        2.2353028565       -0.0915371071
Cu            3.8633411087        2.2299794360       -0.0433967302
Cu            6.4657097198        2.2299794360       -0.0433967302
Cu            2.5807833990        4.4677900242       -0.1089649703
Cu            5.1645254142        4.5105226007       -0.1026142135
Cu            7.7482674294        4.4677900242       -0.1089649703
C             5.1645254142        2.2602880965        1.4776891274
O             5.1645254142        2.2548684382        2.6465087265

     Writing config-only to output data dir tmp/Cu-850-7.746788121318915.save/
     NEW-OLD atomic charge density approx. for the potential

[...]

     Self-consistent Calculation

[...]

     Threshold (ethr) on eigenvalues was too large:
     Diagonalizing with lowered threshold

     CG style diagonalization

[...]

     ethr =  1.48E-11,  avg # of iterations =  3.2

[...]

     c_bands:  1 eigenvalues not converged
     c_bands:  1 eigenvalues not converged
     c_bands:  1 eigenvalues not converged
     c_bands:  2 eigenvalues not converged
     c_bands:  1 eigenvalues not converged
     ethr =  7.37E-13,  avg # of iterations =  4.5

     negative rho (up, down):  5.226E-04 0.000E+00

     Non-local corr. energy    =      22.29978536 Ry

     total energy              =   -7900.83502991 Ry
     estimated scf accuracy    <          7.9E-09 Ry

     iteration # 38     ecut=    62.47 Ry     beta= 0.33
     CG style diagonalization

     c_bands:  1 eigenvalues not converged
     c_bands:  1 eigenvalues not converged

     max_seconds     =   86000.00
     Calculation stopped in k-point loop, point #     9
     Calculation stopped in scf loop at iteration #    37

     Writing config to output data dir tmp/Cu-850-7.746788121318915.save/

     General routines

     Parallel routines

     PAW routines

   This run was terminated on:   9:35:59  21Jun2024

   JOB DONE.