     Program PWSCF v.7.2 starts on 15Jun2024 at 16:35: 4

     Reading input from Cu-850-7.746788121318915.pwi
Warning: card &CELL ignored
Warning: card / ignored

     Current dimensions of program PWSCF are:
     Max number of different atomic species (ntypx) = 10
     Max number of k-points (npk) =  40000
     Max angular momentum in pseudopotentials (lmaxx) =  4
     file Cu.beef-dn-kjpaw_psl.1.0.0.UPF: wavefunction(s)  4S 3D renormalized
     file C.beef-n-kjpaw_psl.1.0.0.UPF: wavefunction(s)  2S 2P renormalized
     file O.beef-n-kjpaw_psl.1.0.0.UPF: wavefunction(s)  2P renormalized

     IMPORTANT: XC functional enforced from input :
     Exchange-correlation= BEEF-VDW
                           (   1   4  43  14   2   0   0)
     Any further DFT definition will be discarded
     Please, verify this is what you really want

     Message from routine setup:
     using ibrav=0 with symmetry is DISCOURAGED, use correct ibrav instead

     K-points division:     npool     =       2
     R & G space division:  proc/nbgrp/npool/nimage =      64
     Subspace diagonalization in iterative solution of the eigenvalue problem:
     one sub-group per band group will be used

     Using Slab Decomposition

     Title:
     Cu-850-7.746788121318915

     bravais-lattice index     =            0
     lattice parameter (alat)  =      14.6393  a.u.
     unit-cell volume          =    7479.3565 (a.u.)^3
     number of atoms/cell      =           38
     number of atomic types    =            3
     number of electrons       =       406.00
     number of Kohn-Sham states=          244
     kinetic-energy cutoff     =      62.4738  Ry
     charge density cutoff     =     624.7385  Ry
     scf convergence threshold =      7.3E-12
     mixing beta               =       0.3333
     number of iterations used =           12  local-TF  mixing
     energy convergence thresh.=      7.3E-07
     force convergence thresh. =      3.9E-04
     Exchange-correlation= BEEF-VDW
                           (   1   4  43  14   2   0   0)
     nstep                     =           50

     Effective Screening Medium Method
     Boundary Conditions: Vacuum-Slab-Metal
     total charge in unit cell        =   0.0000
     grid points for fit at edges     =        4

     celldm(1)=  14.639308  celldm(2)=   0.000000  celldm(3)=   0.000000
     celldm(4)=   0.000000  celldm(5)=   0.000000  celldm(6)=   0.000000

     crystal axes: (cart. coord. in units of alat)
               a(1) = (   1.000000   0.000000   0.000000 )
               a(2) = (   0.500000   0.866025   0.000000 )
               a(3) = (   0.000000   0.000000   2.752783 )

     reciprocal axes: (cart. coord. in units 2 pi/alat)
               b(1) = (  1.000000 -0.577350  0.000000 )
               b(2) = (  0.000000  1.154701  0.000000 )
               b(3) = (  0.000000  0.000000  0.363269 )

     PseudoPot. # 1 for Cu read from file:
     /home/k0227/k022716/QE/pseudo/beef/Cu.beef-dn-kjpaw_psl.1.0.0.UPF
     MD5 check sum: 5c2e06f1363dd15696904a521997ce16
     Pseudo is Projector augmented-wave + core cor, Zval = 11.0
     Generated using 'atomic' code by A. Dal Corso  v.7.2
     Shape of augmentation charge: PSQ
     Using radial grid of 1199 points,  6 beta functions with:
                l(1) =   0
                l(2) =   0
                l(3) =   1
                l(4) =   1
                l(5) =   2
                l(6) =   2
     Q(r) pseudized with 0 coefficients

     PseudoPot. # 2 for C  read from file:
     /home/k0227/k022716/QE/pseudo/beef/C.beef-n-kjpaw_psl.1.0.0.UPF
     MD5 check sum: 3242be9e0015b82b0ed5ff45e65f34ec
     Pseudo is Projector augmented-wave + core cor, Zval =  4.0
     Generated using 'atomic' code by A. Dal Corso  v.7.2
     Shape of augmentation charge: PSQ
     Using radial grid of 1073 points,  4 beta functions with:
                l(1) =   0
                l(2) =   0
                l(3) =   1
                l(4) =   1
     Q(r) pseudized with 0 coefficients

     PseudoPot. # 3 for O  read from file:
     /home/k0227/k022716/QE/pseudo/beef/O.beef-n-kjpaw_psl.1.0.0.UPF
     MD5 check sum: be449223b47fa93bb079dbf01a63c6ce
     Pseudo is Projector augmented-wave + core cor, Zval =  6.0
     Generated using 'atomic' code by A. Dal Corso  v.7.2
     Shape of augmentation charge: PSQ
     Using radial grid of 1095 points,  4 beta functions with:
                l(1) =   0
                l(2) =   0
                l(3) =   1
                l(4) =   1
     Q(r) pseudized with 0 coefficients

     atomic species   valence    mass     pseudopotential
        Cu            11.00    63.54600     Cu( 1.00)
        C              4.00    12.01100     C ( 1.00)
        O              6.00    15.99900     O ( 1.00)

      2 Sym. Ops. (no inversion) found ( 1 have fractional translation)

                                    s                        frac. trans.

      isym =  1     identity

 cryst.   s( 1) = (     1          0          0      )
                  (     0          1          0      )
                  (     0          0          1      )

 cart.    s( 1) = (  1.0000000  0.0000000  0.0000000 )
                  (  0.0000000  1.0000000  0.0000000 )
                  (  0.0000000  0.0000000  1.0000000 )

      isym =  2     inv. 180 deg rotation - cart. axis [1,0,0]

 cryst.   s( 2) = (    -1          0          0      )    f =( -0.3333333 )
                  (    -1          1          0      )       (  0.0000000 )
                  (     0          0          1      )       (  0.0000000 )

 cart.    s( 2) = ( -1.0000000  0.0000000  0.0000000 )    f =( -0.3333333 )
                  (  0.0000000  1.0000000  0.0000000 )       (  0.0000000 )
                  (  0.0000000  0.0000000  1.0000000 )       (  0.0000000 )

   Cartesian axes

     site n.     atom                  positions (alat units)
         1           Cu  tau(   1) = (   0.0000000   0.0000000  -0.8211657  )
         2           Cu  tau(   2) = (   0.3333333   0.0000000  -0.8211657  )
         3           Cu  tau(   3) = (   0.6666667   0.0000000  -0.8211657  )
         4           Cu  tau(   4) = (   0.1666667   0.2886751  -0.8211657  )
         5           Cu  tau(   5) = (   0.5000000   0.2886751  -0.8211657  )
         6           Cu  tau(   6) = (   0.8333333   0.2886751  -0.8211657  )
         7           Cu  tau(   7) = (   0.3333333   0.5773503  -0.8211657  )
         8           Cu  tau(   8) = (   0.6666667   0.5773503  -0.8211657  )
         9           Cu  tau(   9) = (   1.0000000   0.5773503  -0.8211657  )
        10           Cu  tau(  10) = (   0.1666667   0.0962250  -0.5490002  )
        11           Cu  tau(  11) = (   0.5000000   0.0962250  -0.5490002  )
        12           Cu  tau(  12) = (   0.8333333   0.0962250  -0.5490002  )
        13           Cu  tau(  13) = (   0.3333333   0.3849002  -0.5490002  )
        14           Cu  tau(  14) = (   0.6666667   0.3849002  -0.5490002  )
        15           Cu  tau(  15) = (   1.0000000   0.3849002  -0.5490002  )
        16           Cu  tau(  16) = (   0.5000000   0.6735753  -0.5490002  )
        17           Cu  tau(  17) = (   0.8333333   0.6735753  -0.5490002  )
        18           Cu  tau(  18) = (   1.1666667   0.6735753  -0.5490002  )
        19           Cu  tau(  19) = (   0.0000000   0.1924501  -0.2768347  )
        20           Cu  tau(  20) = (   0.3333333   0.1924501  -0.2768347  )
        21           Cu  tau(  21) = (   0.6666667   0.1924501  -0.2768347  )
        22           Cu  tau(  22) = (   0.1666667   0.4811252  -0.2768347  )
        23           Cu  tau(  23) = (   0.5000000   0.4811252  -0.2768347  )
        24           Cu  tau(  24) = (   0.8333333   0.4811252  -0.2768347  )
        25           Cu  tau(  25) = (   0.3333333   0.7698004  -0.2768347  )
        26           Cu  tau(  26) = (   0.6666667   0.7698004  -0.2768347  )
        27           Cu  tau(  27) = (   1.0000000   0.7698004  -0.2768347  )
        28           Cu  tau(  28) = (   0.0000000   0.0000000  -0.0046691  )
        29           Cu  tau(  29) = (   0.3333333   0.0000000  -0.0046691  )
        30           Cu  tau(  30) = (   0.6666667   0.0000000  -0.0046691  )
        31           Cu  tau(  31) = (   0.1666667   0.2886751  -0.0046691  )
        32           Cu  tau(  32) = (   0.5000000   0.2886751  -0.0046691  )
        33           Cu  tau(  33) = (   0.8333333   0.2886751  -0.0046691  )
        34           Cu  tau(  34) = (   0.3333333   0.5773503  -0.0046691  )
        35           Cu  tau(  35) = (   0.6666667   0.5773503  -0.0046691  )
        36           Cu  tau(  36) = (   1.0000000   0.5773503  -0.0046691  )
        37           C   tau(  37) = (   0.6666667   0.2886751   0.1001477  )
        38           O   tau(  38) = (   0.6666667   0.2886751   0.2470481  )

   Crystallographic axes

     site n.     atom                  positions (cryst. coord.)
         1           Cu  tau(   1) = (  0.0000000  0.0000000 -0.2983038  )
         2           Cu  tau(   2) = (  0.3333333  0.0000000 -0.2983038  )
         3           Cu  tau(   3) = (  0.6666667  0.0000000 -0.2983038  )
         4           Cu  tau(   4) = (  0.0000000  0.3333333 -0.2983038  )
         5           Cu  tau(   5) = (  0.3333333  0.3333333 -0.2983038  )
         6           Cu  tau(   6) = (  0.6666667  0.3333333 -0.2983038  )
         7           Cu  tau(   7) = ( -0.0000000  0.6666667 -0.2983038  )
         8           Cu  tau(   8) = (  0.3333333  0.6666667 -0.2983038  )
         9           Cu  tau(   9) = (  0.6666667  0.6666667 -0.2983038  )
        10           Cu  tau(  10) = (  0.1111111  0.1111111 -0.1994346  )
        11           Cu  tau(  11) = (  0.4444444  0.1111111 -0.1994346  )
        12           Cu  tau(  12) = (  0.7777778  0.1111111 -0.1994346  )
        13           Cu  tau(  13) = (  0.1111111  0.4444444 -0.1994346  )
        14           Cu  tau(  14) = (  0.4444444  0.4444444 -0.1994346  )
        15           Cu  tau(  15) = (  0.7777778  0.4444444 -0.1994346  )
        16           Cu  tau(  16) = (  0.1111111  0.7777778 -0.1994346  )
        17           Cu  tau(  17) = (  0.4444444  0.7777778 -0.1994346  )
        18           Cu  tau(  18) = (  0.7777778  0.7777778 -0.1994346  )
        19           Cu  tau(  19) = ( -0.1111111  0.2222222 -0.1005654  )
        20           Cu  tau(  20) = (  0.2222222  0.2222222 -0.1005654  )
        21           Cu  tau(  21) = (  0.5555556  0.2222222 -0.1005654  )
        22           Cu  tau(  22) = ( -0.1111111  0.5555556 -0.1005654  )
        23           Cu  tau(  23) = (  0.2222222  0.5555556 -0.1005654  )
        24           Cu  tau(  24) = (  0.5555556  0.5555556 -0.1005654  )
        25           Cu  tau(  25) = ( -0.1111111  0.8888889 -0.1005654  )
        26           Cu  tau(  26) = (  0.2222222  0.8888889 -0.1005654  )
        27           Cu  tau(  27) = (  0.5555556  0.8888889 -0.1005654  )
        28           Cu  tau(  28) = (  0.0000000  0.0000000 -0.0016962  )
        29           Cu  tau(  29) = (  0.3333333  0.0000000 -0.0016962  )
        30           Cu  tau(  30) = (  0.6666667  0.0000000 -0.0016962  )
[...]
     atom   34 type  1   force =    -0.65039945    0.44074005  516.44258171
     atom   35 type  1   force =     0.00000000    2.23147495  514.97361994
     atom   36 type  1   force =     0.65039945    0.44074005  516.44258171
     atom   37 type  2   force =     0.00000000    0.01558681  206.33693664
     atom   38 type  3   force =     0.00000000   -0.01623984  336.01374973
     The local contribution  to forces
     atom    1 type  1   force =    -0.14142379    0.00456480  -74.29553620
     atom    2 type  1   force =     0.14142379    0.00456480  -74.29553620
     atom    3 type  1   force =     0.00000000    0.04005540  -74.16776645
     atom    4 type  1   force =    -0.00000001    0.05311564  -74.33041644
     atom    5 type  1   force =     0.05547229   -0.03161308  -74.20165086
     atom    6 type  1   force =    -0.05547231   -0.03161308  -74.20165086
     atom    7 type  1   force =    -0.00314671    0.01952492  -74.25527682
     atom    8 type  1   force =     0.00000000   -0.08200841  -74.22944522
     atom    9 type  1   force =     0.00314671    0.01952492  -74.25527682
     atom   10 type  1   force =    -0.00000001   -0.02029409 -222.19774850
     atom   11 type  1   force =     0.16223897    0.00975364 -220.59976779
     atom   12 type  1   force =    -0.16223899    0.00975364 -220.59976779
     atom   13 type  1   force =     0.10060346    0.02907569 -221.33184123
     atom   14 type  1   force =     0.00000000   -0.04714410 -220.82072313
     atom   15 type  1   force =    -0.10060345    0.02907569 -221.33184123
     atom   16 type  1   force =    -0.01882952   -0.05738814 -221.30107387
     atom   17 type  1   force =     0.01882951   -0.05738814 -221.30107387
     atom   18 type  1   force =    -0.00000001    0.09529047 -221.07095975
     atom   19 type  1   force =    -0.52789310    0.11098657 -369.76984489
     atom   20 type  1   force =     0.52789310    0.11098657 -369.76984489
     atom   21 type  1   force =     0.00000000    0.06749384 -367.06900510
     atom   22 type  1   force =    -0.00000001    0.10626602 -368.40537923
     atom   23 type  1   force =     0.25187537   -0.23544244 -369.10113281
     atom   24 type  1   force =    -0.25187539   -0.23544244 -369.10113281
     atom   25 type  1   force =    -0.20537200    0.20650764 -368.31868580
     atom   26 type  1   force =     0.00000000   -0.29223666 -368.26113566
     atom   27 type  1   force =     0.20537200    0.20650764 -368.31868580
     atom   28 type  1   force =    -0.65262719    0.44553881 -516.75549549
     atom   29 type  1   force =     0.65262719    0.44553881 -516.75549549
     atom   30 type  1   force =     0.00000000    1.95021991 -514.56492698
     atom   31 type  1   force =    -0.00000001    0.00569983 -517.33944389
     atom   32 type  1   force =     3.97940578    0.06347955 -513.88374028
     atom   33 type  1   force =    -3.97940580    0.06347955 -513.88374028
     atom   34 type  1   force =     0.64950028   -0.43637460 -516.54613031
     atom   35 type  1   force =     0.00000000   -2.13599057 -515.13415676
     atom   36 type  1   force =    -0.64950027   -0.43637460 -516.54613031
     atom   37 type  2   force =     0.00000000   -0.01715602 -206.89106524
     atom   38 type  3   force =     0.00000000    0.01288661 -333.35463447
     The core correction contribution to forces
     atom    1 type  1   force =    -0.00009217    0.00030109    0.01671504
     atom    2 type  1   force =     0.00009217    0.00030109    0.01671504
     atom    3 type  1   force =     0.00000000    0.00012826    0.01745879
     atom    4 type  1   force =    -0.00000000   -0.00014456    0.01664473
     atom    5 type  1   force =    -0.00010990   -0.00014952    0.01699700
     atom    6 type  1   force =     0.00010990   -0.00014952    0.01699700
     atom    7 type  1   force =    -0.00014279   -0.00015727    0.01697369
     atom    8 type  1   force =     0.00000000   -0.00009289    0.01713146
     atom    9 type  1   force =     0.00014279   -0.00015727    0.01697369
     atom   10 type  1   force =    -0.00000000    0.00016867    0.00017655
     atom   11 type  1   force =    -0.00027052   -0.00031819   -0.00084497
     atom   12 type  1   force =     0.00027052   -0.00031819   -0.00084497
     atom   13 type  1   force =    -0.00004509   -0.00016244   -0.00040408
     atom   14 type  1   force =     0.00000000    0.00050111    0.00007506
     atom   15 type  1   force =     0.00004509   -0.00016244   -0.00040408
     atom   16 type  1   force =     0.00002135    0.00002076   -0.00028816
     atom   17 type  1   force =    -0.00002135    0.00002076   -0.00028816
     atom   18 type  1   force =    -0.00000000    0.00016361   -0.00015355
     atom   19 type  1   force =    -0.00140654    0.00018294    0.00071784
     atom   20 type  1   force =     0.00140654    0.00018294    0.00071784
     atom   21 type  1   force =     0.00000000   -0.00005438   -0.00448465
     atom   22 type  1   force =    -0.00000000    0.00007483    0.00035458
     atom   23 type  1   force =     0.00039031   -0.00018101   -0.00039311
     atom   24 type  1   force =    -0.00039031   -0.00018101   -0.00039311
     atom   25 type  1   force =    -0.00047109    0.00086292    0.00095274
     atom   26 type  1   force =     0.00000000   -0.00086935    0.00074778
     atom   27 type  1   force =     0.00047109    0.00086292    0.00095274
     atom   28 type  1   force =     0.00029162    0.00005525   -0.01717650
     atom   29 type  1   force =    -0.00029162    0.00005525   -0.01717650
     atom   30 type  1   force =     0.00000000   -0.00173634   -0.01602592
     atom   31 type  1   force =    -0.00000000   -0.00029230   -0.01653530
     atom   32 type  1   force =     0.01208009    0.00015331   -0.00439995
     atom   33 type  1   force =    -0.01208010    0.00015331   -0.00439995
     atom   34 type  1   force =    -0.00019512    0.00022250   -0.01681532
     atom   35 type  1   force =     0.00000000    0.00034706   -0.01680814
     atom   36 type  1   force =     0.00019512    0.00022250   -0.01681532
     atom   37 type  2   force =    -0.00000000    0.00025963   -0.00159622
     atom   38 type  3   force =    -0.00000000   -0.00002963    0.01810986
     The Hubbard contrib.    to forces
     atom    1 type  1   force =     0.00000000    0.00000000    0.00000000
     atom    2 type  1   force =     0.00000000    0.00000000    0.00000000
     atom    3 type  1   force =     0.00000000    0.00000000    0.00000000
     atom    4 type  1   force =     0.00000000    0.00000000    0.00000000
     atom    5 type  1   force =     0.00000000    0.00000000    0.00000000
     atom    6 type  1   force =     0.00000000    0.00000000    0.00000000
     atom    7 type  1   force =     0.00000000    0.00000000    0.00000000
     atom    8 type  1   force =     0.00000000    0.00000000    0.00000000
     atom    9 type  1   force =     0.00000000    0.00000000    0.00000000
     atom   10 type  1   force =     0.00000000    0.00000000    0.00000000
     atom   11 type  1   force =     0.00000000    0.00000000    0.00000000
     atom   12 type  1   force =     0.00000000    0.00000000    0.00000000
     atom   13 type  1   force =     0.00000000    0.00000000    0.00000000
     atom   14 type  1   force =     0.00000000    0.00000000    0.00000000
     atom   15 type  1   force =     0.00000000    0.00000000    0.00000000
     atom   16 type  1   force =     0.00000000    0.00000000    0.00000000
     atom   17 type  1   force =     0.00000000    0.00000000    0.00000000
     atom   18 type  1   force =     0.00000000    0.00000000    0.00000000
     atom   19 type  1   force =     0.00000000    0.00000000    0.00000000
     atom   20 type  1   force =     0.00000000    0.00000000    0.00000000
     atom   21 type  1   force =     0.00000000    0.00000000    0.00000000
     atom   22 type  1   force =     0.00000000    0.00000000    0.00000000
     atom   23 type  1   force =     0.00000000    0.00000000    0.00000000
     atom   24 type  1   force =     0.00000000    0.00000000    0.00000000
     atom   25 type  1   force =     0.00000000    0.00000000    0.00000000
     atom   26 type  1   force =     0.00000000    0.00000000    0.00000000
     atom   27 type  1   force =     0.00000000    0.00000000    0.00000000
     atom   28 type  1   force =     0.00000000    0.00000000    0.00000000
     atom   29 type  1   force =     0.00000000    0.00000000    0.00000000
     atom   30 type  1   force =     0.00000000    0.00000000    0.00000000
     atom   31 type  1   force =     0.00000000    0.00000000    0.00000000
     atom   32 type  1   force =     0.00000000    0.00000000    0.00000000
     atom   33 type  1   force =     0.00000000    0.00000000    0.00000000
     atom   34 type  1   force =     0.00000000    0.00000000    0.00000000
     atom   35 type  1   force =     0.00000000    0.00000000    0.00000000
     atom   36 type  1   force =     0.00000000    0.00000000    0.00000000
     atom   37 type  2   force =     0.00000000    0.00000000    0.00000000
     atom   38 type  3   force =     0.00000000    0.00000000    0.00000000
     The SCF correction term to forces
     atom    1 type  1   force =     0.00000000    0.00000000    0.00000000
     atom    2 type  1   force =     0.00000000    0.00000000    0.00000000
     atom    3 type  1   force =     0.00000000    0.00000000    0.00000000
     atom    4 type  1   force =     0.00000000    0.00000000    0.00000000
     atom    5 type  1   force =     0.00000000    0.00000000    0.00000000
     atom    6 type  1   force =     0.00000000    0.00000000    0.00000000
     atom    7 type  1   force =     0.00000000    0.00000000    0.00000000
     atom    8 type  1   force =     0.00000000    0.00000000    0.00000000
     atom    9 type  1   force =     0.00000000    0.00000000    0.00000000
     atom   10 type  1   force =    -0.00000000    0.00000004    0.00000032
     atom   11 type  1   force =     0.00000001    0.00000011    0.00000035
     atom   12 type  1   force =    -0.00000001    0.00000011    0.00000035
     atom   13 type  1   force =     0.00000009   -0.00000008    0.00000037
     atom   14 type  1   force =    -0.00000000   -0.00000002    0.00000043
     atom   15 type  1   force =    -0.00000009   -0.00000008    0.00000037
     atom   16 type  1   force =     0.00000003   -0.00000006    0.00000039
     atom   17 type  1   force =    -0.00000003   -0.00000006    0.00000039
     atom   18 type  1   force =     0.00000000    0.00000001    0.00000019
     atom   19 type  1   force =    -0.00000005    0.00000006    0.00000013
     atom   20 type  1   force =     0.00000005    0.00000006    0.00000013
     atom   21 type  1   force =    -0.00000000    0.00000027   -0.00000019
     atom   22 type  1   force =    -0.00000000   -0.00000004    0.00000006
     atom   23 type  1   force =     0.00000024   -0.00000009    0.00000012
     atom   24 type  1   force =    -0.00000024   -0.00000009    0.00000012
     atom   25 type  1   force =     0.00000000   -0.00000000    0.00000016
     atom   26 type  1   force =     0.00000000   -0.00000013    0.00000016
     atom   27 type  1   force =    -0.00000000   -0.00000000    0.00000016
     atom   28 type  1   force =     0.00000011    0.00000002   -0.00000009
     atom   29 type  1   force =    -0.00000011    0.00000002   -0.00000009
     atom   30 type  1   force =     0.00000000    0.00000014    0.00000010
     atom   31 type  1   force =     0.00000000    0.00000007    0.00000000
     atom   32 type  1   force =     0.00000012   -0.00000005   -0.00000020
     atom   33 type  1   force =    -0.00000012   -0.00000005   -0.00000020
     atom   34 type  1   force =     0.00000002   -0.00000014   -0.00000006
     atom   35 type  1   force =    -0.00000000    0.00000010   -0.00000041
     atom   36 type  1   force =    -0.00000002   -0.00000014   -0.00000006
     atom   37 type  2   force =    -0.00000000    0.00000002   -0.00000036
     atom   38 type  3   force =    -0.00000000    0.00000017   -0.00000024

     Total force =     0.002384     Total SCF correction =     0.000002
     Energy error            =      1.9E-05 Ry
     Gradient error          =      7.6E-04 Ry/Bohr

     number of scf cycles    =  24
     number of bfgs steps    =  23

     energy             old  =   -7900.8348242683 Ry
     energy             new  =   -7900.8348436291 Ry

     CASE: energy            _new < energy            _old

     new trust radius        =       0.0102120398 bohr
     new conv_thr            =            1.4E-13 Ry

ATOMIC_POSITIONS (angstrom)
Cu            0.0000000000        0.0000000000       -6.3613969092    0   0   0
Cu            2.5822627071        0.0000000000       -6.3613969092    0   0   0
Cu            5.1645254142        0.0000000000       -6.3613969092    0   0   0
Cu            1.2911313536        2.2363051036       -6.3613969092    0   0   0
Cu            3.8733940607        2.2363051036       -6.3613969092    0   0   0
Cu            6.4556567678        2.2363051036       -6.3613969092    0   0   0
Cu            2.5822627071        4.4726102072       -6.3613969092    0   0   0
Cu            5.1645254142        4.4726102072       -6.3613969092    0   0   0
Cu            7.7467881213        4.4726102072       -6.3613969092    0   0   0
Cu            1.2911313536        0.7529296124       -4.2663802819
Cu            3.8692835053        0.7444849746       -4.2873305225
Cu            6.4597673232        0.7444849746       -4.2873305225
Cu            2.5833056473        2.9820212145       -4.2779504168
Cu            5.1645254142        2.9847123941       -4.2828299499
Cu            7.7457451811        2.9820212145       -4.2779504168
Cu            3.8744706008        5.2161942903       -4.2780328134
Cu            6.4545802277        5.2161942903       -4.2780328134
Cu            9.0379194749        5.2188913239       -4.2806793205
Cu           -0.0158638726        1.5019734417       -2.1786205850
Cu            2.5981265797        1.5019734417       -2.1786205850
Cu            5.1645254142        1.4886570511       -2.2204911643
Cu            1.2911313536        3.7289922598       -2.2015450950
Cu            3.8800687924        3.7195509014       -2.1880090544
Cu            6.4489820361        3.7195509014       -2.1880090544
Cu            2.5832528188        5.9679580174       -2.2012920435
Cu            5.1645254142        5.9675213807       -2.2022395936
Cu            7.7457980096        5.9679580174       -2.2012920435
Cu            0.0015837699       -0.0005748618       -0.1165713420
Cu            2.5806789372       -0.0005748618       -0.1165713420
Cu            5.1645254142       -0.0459091269       -0.1260411006
Cu            1.2911313536        2.2365292785       -0.1028955436
Cu            3.8625926468        2.2313834490       -0.0573885998
Cu            6.4664581817        2.2313834490       -0.0573885998
Cu            2.5811114046        4.4685517810       -0.1199310018
Cu            5.1645254142        4.5117283563       -0.1141789670
Cu            7.7479394238        4.4685517810       -0.1199310018
C             5.1645254142        2.2467242535        1.4652425428
O             5.1645254142        2.2434612366        2.6340269288

     Writing config-only to output data dir tmp/Cu-850-7.746788121318915.save/
     NEW-OLD atomic charge density approx. for the potential

[...]

     Self-consistent Calculation

[...]

     ethr =  2.04E-11,  avg # of iterations =  3.8

[...]

     c_bands:  1 eigenvalues not converged
     c_bands:  1 eigenvalues not converged
     c_bands:  1 eigenvalues not converged
     c_bands:  1 eigenvalues not converged
     c_bands:  1 eigenvalues not converged
     c_bands:  3 eigenvalues not converged
     c_bands:  1 eigenvalues not converged
     ethr =  3.24E-12,  avg # of iterations =  4.1

     negative rho (up, down):  5.211E-04 0.000E+00

     Non-local corr. energy    =      22.29764543 Ry

     total energy              =   -7900.83486100 Ry
     estimated scf accuracy    <       0.00000009 Ry

     iteration # 58     ecut=    62.47 Ry     beta= 0.33
     CG style diagonalization

     c_bands:  1 eigenvalues not converged
     c_bands:  2 eigenvalues not converged
     c_bands:  1 eigenvalues not converged
     c_bands:  1 eigenvalues not converged

     max_seconds     =   86000.00
     Calculation stopped in k-point loop, point #     9
     Calculation stopped in scf loop at iteration #    57

     Writing config to output data dir tmp/Cu-850-7.746788121318915.save/

     General routines

     Parallel routines

     PAW routines

   This run was terminated on:  16:28:28  16Jun2024

   JOB DONE.