     Program PWSCF v.7.2 starts on 15Jul2024 at  1: 3: 5

     Reading input from Cu-vib.pwi
Warning: card &CELL ignored
Warning: card / ignored

     Current dimensions of program PWSCF are:
     Max number of different atomic species (ntypx) = 10
     Max number of k-points (npk) =  40000
     Max angular momentum in pseudopotentials (lmaxx) =  4
     file Cu.pbe-dn-kjpaw_psl.1.0.0.UPF: wavefunction(s)  4S 3D renormalized
     file C.pbe-n-kjpaw_psl.1.0.0.UPF: wavefunction(s)  2S 2P renormalized
     file O.pbe-n-kjpaw_psl.1.0.0.UPF: wavefunction(s)  2S 2P renormalized

     IMPORTANT: XC functional enforced from input :
     Exchange-correlation= BEEF-VDW
                           (   1   4  43  14   2   0   0)
     Any further DFT definition will be discarded
     Please, verify this is what you really want

     K-points division:     npool     =       2
     R & G space division:  proc/nbgrp/npool/nimage =      96
     Subspace diagonalization in iterative solution of the eigenvalue problem:
     one sub-group per band group will be used

     Using Slab Decomposition

     Title:
     Cu-vib

     bravais-lattice index     =            0
     lattice parameter (alat)  =      14.6292  a.u.
     unit-cell volume          =    7467.4559 (a.u.)^3
     number of atoms/cell      =           38
     number of atomic types    =            3
     number of electrons       =       406.00
     number of Kohn-Sham states=          244
     kinetic-energy cutoff     =      62.4738  Ry
     charge density cutoff     =     624.7385  Ry
     scf convergence threshold =      7.3E-12
     mixing beta               =       0.3333
     number of iterations used =           12  local-TF  mixing
     Exchange-correlation= BEEF-VDW
                           (   1   4  43  14   2   0   0)

     Effective Screening Medium Method
     Boundary Conditions: Vacuum-Slab-Metal
     total charge in unit cell        =   0.0000
     grid points for fit at edges     =        4

     celldm(1)=  14.629163  celldm(2)=   0.000000  celldm(3)=   0.000000
     celldm(4)=   0.000000  celldm(5)=   0.000000  celldm(6)=   0.000000

     crystal axes: (cart. coord. in units of alat)
               a(1) = (   1.000000   0.000000   0.000000 )
               a(2) = (   0.500000   0.866025   0.000000 )
               a(3) = (   0.000000   0.000000   2.754126 )

     reciprocal axes: (cart. coord. in units 2 pi/alat)
               b(1) = (  1.000000 -0.577351  0.000000 )
               b(2) = (  0.000000  1.154701  0.000000 )
               b(3) = (  0.000000  0.000000  0.363092 )

     PseudoPot. # 1 for Cu read from file:
     /home/k0227/k022716/QE/pseudo/Cu.pbe-dn-kjpaw_psl.1.0.0.UPF
     MD5 check sum: 67c40f9e1593dc2d139023e70404cc2a
     Pseudo is Projector augmented-wave + core cor, Zval = 11.0
     Generated using "atomic" code by A. Dal Corso  v.6.1 svn rev. 13369
     Shape of augmentation charge: PSQ
     Using radial grid of 1199 points,  6 beta functions with:
                l(1) =   0
                l(2) =   0
                l(3) =   1
                l(4) =   1
                l(5) =   2
                l(6) =   2
     Q(r) pseudized with 0 coefficients

     PseudoPot. # 2 for C  read from file:
     /home/k0227/k022716/QE/pseudo/C.pbe-n-kjpaw_psl.1.0.0.UPF
     MD5 check sum: 92a742b3ac0ce1af44b5aa3f9352ca21
     Pseudo is Projector augmented-wave + core cor, Zval =  4.0
     Generated using "atomic" code by A. Dal Corso  v.6.1 svn rev. 13369
     Shape of augmentation charge: PSQ
     Using radial grid of 1073 points,  4 beta functions with:
                l(1) =   0
                l(2) =   0
                l(3) =   1
                l(4) =   1
     Q(r) pseudized with 0 coefficients

     PseudoPot. # 3 for O  read from file:
     /home/k0227/k022716/QE/pseudo/O.pbe-n-kjpaw_psl.1.0.0.UPF
     MD5 check sum: c61d840054b6bba219e553541e327118
     Pseudo is Projector augmented-wave + core cor, Zval =  6.0
     Generated using "atomic" code by A. Dal Corso  v.6.1 svn rev. 13369
     Shape of augmentation charge: PSQ
     Using radial grid of 1095 points,  4 beta functions with:
                l(1) =   0
                l(2) =   0
                l(3) =   1
                l(4) =   1
     Q(r) pseudized with 0 coefficients

     atomic species   valence    mass     pseudopotential
        Cu            11.00    63.54600     Cu( 1.00)
        C              4.00    12.01100     C ( 1.00)
        O              6.00    15.99900     O ( 1.00)

     No symmetry found

                                    s                        frac. trans.

      isym =  1     identity

 cryst.   s( 1) = (     1          0          0      )
                  (     0          1          0      )
                  (     0          0          1      )

 cart.    s( 1) = (  1.0000000  0.0000000  0.0000000 )
                  (  0.0000000  1.0000000  0.0000000 )
                  (  0.0000000  0.0000000  1.0000000 )

   Cartesian axes

     site n.     atom                  positions (alat units)
         1           Cu  tau(   1) = (   0.0000000   0.0000000  -0.8213671  )
         2           Cu  tau(   2) = (   0.3333333   0.0000000  -0.8213671  )
         3           Cu  tau(   3) = (   0.6666666   0.0000000  -0.8213671  )
         4           Cu  tau(   4) = (   0.1666667   0.2886751  -0.8213671  )
         5           Cu  tau(   5) = (   0.5000000   0.2886751  -0.8213671  )
         6           Cu  tau(   6) = (   0.8333333   0.2886751  -0.8213671  )
         7           Cu  tau(   7) = (   0.3333333   0.5773503  -0.8213671  )
         8           Cu  tau(   8) = (   0.6666666   0.5773503  -0.8213671  )
         9           Cu  tau(   9) = (   1.0000000   0.5773503  -0.8213671  )
        10           Cu  tau(  10) = (   0.1676726   0.0968058  -0.5514407  )
        11           Cu  tau(  11) = (   0.5000000   0.0962354  -0.5516369  )
        12           Cu  tau(  12) = (   0.8323274   0.0968058  -0.5514407  )
        13           Cu  tau(  13) = (   0.3333423   0.3848950  -0.5516369  )
        14           Cu  tau(  14) = (   0.6666577   0.3848950  -0.5516369  )
        15           Cu  tau(  15) = (   1.0000000   0.3850123  -0.5516296  )
        16           Cu  tau(  16) = (   0.5000000   0.6724138  -0.5514407  )
        17           Cu  tau(  17) = (   0.8334305   0.6735192  -0.5516296  )
        18           Cu  tau(  18) = (   1.1665695   0.6735192  -0.5516296  )
        19           Cu  tau(  19) = (   0.0000000   0.1920199  -0.2839468  )
        20           Cu  tau(  20) = (   0.3352761   0.1935717  -0.2785153  )
        21           Cu  tau(  21) = (   0.6647239   0.1935717  -0.2785153  )
        22           Cu  tau(  22) = (   0.1667971   0.4810499  -0.2820853  )
        23           Cu  tau(  23) = (   0.5000000   0.4788819  -0.2785153  )
        24           Cu  tau(  24) = (   0.8332029   0.4810499  -0.2820853  )
        25           Cu  tau(  25) = (   0.3337059   0.7700154  -0.2839468  )
        26           Cu  tau(  26) = (   0.6662941   0.7700154  -0.2839468  )
        27           Cu  tau(  27) = (   1.0000000   0.7699510  -0.2820853  )
        28           Cu  tau(  28) = (   0.0000000   0.0000000  -0.0115821  )
        29           Cu  tau(  29) = (   0.3320846  -0.0026680  -0.0142138  )
        30           Cu  tau(  30) = (   0.6679153  -0.0026680  -0.0142138  )
        31           Cu  tau(  31) = (   0.1637317   0.2889277  -0.0142138  )
        32           Cu  tau(  32) = (   0.5000000   0.2886751   0.0020453  )
        33           Cu  tau(  33) = (   0.8362682   0.2889277  -0.0142138  )
        34           Cu  tau(  34) = (   0.3316471   0.5797657  -0.0142138  )
        35           Cu  tau(  35) = (   0.6683529   0.5797657  -0.0142138  )
        36           Cu  tau(  36) = (   1.0000000   0.5773503  -0.0124640  )
        37           C   tau(  37) = (   0.5000000   0.2886751   0.2446598  )
        38           O   tau(  38) = (   0.5000000   0.2886751   0.3932622  )

   Crystallographic axes

     site n.     atom                  positions (cryst. coord.)
         1           Cu  tau(   1) = (  0.0000000  0.0000000 -0.2982315  )
         2           Cu  tau(   2) = (  0.3333333  0.0000000 -0.2982315  )
         3           Cu  tau(   3) = (  0.6666666  0.0000000 -0.2982315  )
         4           Cu  tau(   4) = ( -0.0000001  0.3333335 -0.2982315  )
         5           Cu  tau(   5) = (  0.3333332  0.3333335 -0.2982315  )
         6           Cu  tau(   6) = (  0.6666666  0.3333335 -0.2982315  )
         7           Cu  tau(   7) = ( -0.0000002  0.6666670 -0.2982315  )
         8           Cu  tau(   8) = (  0.3333332  0.6666670 -0.2982315  )
         9           Cu  tau(   9) = (  0.6666665  0.6666670 -0.2982315  )
        10           Cu  tau(  10) = (  0.1117817  0.1117818 -0.2002235  )
        11           Cu  tau(  11) = (  0.4444384  0.1111231 -0.2002947  )
        12           Cu  tau(  12) = (  0.7764365  0.1117818 -0.2002235  )
        13           Cu  tau(  13) = (  0.1111230  0.4444386 -0.2002947  )
        14           Cu  tau(  14) = (  0.4444383  0.4444386 -0.2002947  )
        15           Cu  tau(  15) = (  0.7777129  0.4445742 -0.2002921  )
        16           Cu  tau(  16) = (  0.1117815  0.7764369 -0.2002235  )
        17           Cu  tau(  17) = (  0.4445738  0.7777134 -0.2002921  )
        18           Cu  tau(  18) = (  0.7777128  0.7777134 -0.2002921  )
        19           Cu  tau(  19) = ( -0.1108628  0.2217256 -0.1030987  )
        20           Cu  tau(  20) = (  0.2235173  0.2235175 -0.1011266  )
        21           Cu  tau(  21) = (  0.5529652  0.2235175 -0.1011266  )
        22           Cu  tau(  22) = ( -0.1109373  0.5554688 -0.1024228  )
        23           Cu  tau(  23) = (  0.2235172  0.5529655 -0.1011266  )
        24           Cu  tau(  24) = (  0.5554684  0.5554688 -0.1024228  )
        25           Cu  tau(  25) = ( -0.1108629  0.8891376 -0.1030987  )
        26           Cu  tau(  26) = (  0.2217253  0.8891376 -0.1030987  )
        27           Cu  tau(  27) = (  0.5554684  0.8890632 -0.1024228  )
        28           Cu  tau(  28) = (  0.0000000  0.0000000 -0.0042054  )
        29           Cu  tau(  29) = (  0.3336250 -0.0030808 -0.0051609  )
        30           Cu  tau(  30) = (  0.6694557 -0.0030808 -0.0051609  )
        31           Cu  tau(  31) = ( -0.0030808  0.3336252 -0.0051609  )
        32           Cu  tau(  32) = (  0.3333332  0.3333335  0.0007426  )
        33           Cu  tau(  33) = (  0.6694556  0.3336252 -0.0051609  )
        34           Cu  tau(  34) = ( -0.0030809  0.6694560 -0.0051609  )
        35           Cu  tau(  35) = (  0.3336249  0.6694560 -0.0051609  )
        36           Cu  tau(  36) = (  0.6666665  0.6666670 -0.0045256  )
        37           C   tau(  37) = (  0.3333332  0.3333335  0.0888339  )
        38           O   tau(  38) = (  0.3333332  0.3333335  0.1427902  )

     number of k points=    64  Marzari-Vanderbilt smearing, width (Ry)=  0.0073
                       cart. coord. in units 2pi/alat
        k(    1) = (   0.0000000   0.0000000   0.0000000), wk =   0.0312500
[...]
     atom   15 type  1   force =     0.00000003    0.00102261   -0.01718816
     atom   16 type  1   force =    -0.00000002    0.00601736   -0.02426806
     atom   17 type  1   force =     0.00088558   -0.00051173   -0.01718808
     atom   18 type  1   force =    -0.00088556   -0.00051175   -0.01718807
     atom   19 type  1   force =    -0.00000003    0.00444642    0.02713480
     atom   20 type  1   force =    -0.01507087   -0.00870083    0.00500468
     atom   21 type  1   force =     0.01507090   -0.00870083    0.00500467
     atom   22 type  1   force =     0.00655022   -0.00378173    0.03027935
     atom   23 type  1   force =     0.00000001    0.01740246    0.00500472
     atom   24 type  1   force =    -0.00655023   -0.00378175    0.03027934
     atom   25 type  1   force =    -0.00385042   -0.00222345    0.02713482
     atom   26 type  1   force =     0.00385040   -0.00222347    0.02713482
     atom   27 type  1   force =     0.00000002    0.00756313    0.03027932
     atom   28 type  1   force =    -0.00000003    0.00000060    0.11616034
     atom   29 type  1   force =     0.01399815    0.02169945    0.14670878
     atom   30 type  1   force =    -0.01399813    0.02169943    0.14670879
     atom   31 type  1   force =     0.02579083    0.00127323    0.14670901
     atom   32 type  1   force =    -0.00000001   -0.00000010    0.01631915
     atom   33 type  1   force =    -0.02579082    0.00127320    0.14670900
     atom   34 type  1   force =     0.01179266   -0.02297266    0.14670871
     atom   35 type  1   force =    -0.01179269   -0.02297267    0.14670868
     atom   36 type  1   force =     0.00000003   -0.00000050    0.12105542
     atom   37 type  2   force =     0.00000000    0.00000001    0.79767381
     atom   38 type  3   force =     0.00000000    0.00000002   -2.76100068
     The ionic contribution  to forces
     atom    1 type  1   force =    -0.00000274    0.00004914   74.57899607
     atom    2 type  1   force =    -0.03532901   -0.00358976   74.43255853
     atom    3 type  1   force =     0.03533135   -0.00359129   74.43255896
     atom    4 type  1   force =    -0.02081723   -0.02876878   74.43258284
     atom    5 type  1   force =    -0.00000021    0.00000670   74.43712510
     atom    6 type  1   force =     0.02081730   -0.02877162   74.43258193
     atom    7 type  1   force =     0.01451164    0.03236483   74.43257945
     atom    8 type  1   force =    -0.01451423    0.03236352   74.43257811
     atom    9 type  1   force =     0.00000286   -0.00005238   74.40660191
     atom   10 type  1   force =    -0.06079051   -0.03503502  221.53998810
     atom   11 type  1   force =     0.00000073    0.08721179  221.58564573
     atom   12 type  1   force =     0.06078974   -0.03503772  221.53998849
     atom   13 type  1   force =     0.07547387   -0.04357591  221.58566303
     atom   14 type  1   force =    -0.07547609   -0.04357798  221.58566346
     atom   15 type  1   force =     0.00000238   -0.03983026  221.39897274
     atom   16 type  1   force =    -0.00000295    0.07013509  221.54002007
     atom   17 type  1   force =    -0.03449141    0.01985559  221.39898694
     atom   18 type  1   force =     0.03449477    0.01985495  221.39898688
     atom   19 type  1   force =    -0.00000250   -0.05958874  368.01834875
     atom   20 type  1   force =    -0.15200791   -0.08770528  370.65487954
     atom   21 type  1   force =     0.15200984   -0.08770733  370.65487992
     atom   22 type  1   force =    -0.05550412    0.03202879  368.91329562
     atom   23 type  1   force =    -0.00000079    0.17550700  370.65487168
     atom   24 type  1   force =     0.05550475    0.03202609  368.91329597
     atom   25 type  1   force =     0.05165262    0.02978218  368.01834712
     atom   26 type  1   force =    -0.05165537    0.02978154  368.01834705
     atom   27 type  1   force =     0.00000326   -0.06413149  368.91330110
     atom   28 type  1   force =    -0.00000310    0.00003907  517.01027395
     atom   29 type  1   force =    -0.66156455   -0.90917586  515.76453786
     atom   30 type  1   force =     0.66156682   -0.90917718  515.76453650
     atom   31 type  1   force =    -1.11818713   -0.11831390  515.76451813
     atom   32 type  1   force =     0.00000020    0.00000939  515.14973451
     atom   33 type  1   force =     1.11818704   -0.11831676  515.76451722
     atom   34 type  1   force =    -0.45662073    1.02749126  515.76451497
     atom   35 type  1   force =     0.45661849    1.02748971  515.76451540
     atom   36 type  1   force =     0.00000288   -0.00005038  517.80086080
     atom   37 type  2   force =     0.00000002    0.00000066  208.27197071
     atom   38 type  3   force =     0.00000001    0.00000034  336.98678722
     The local contribution  to forces
     atom    1 type  1   force =     0.00000275   -0.00004936  -74.46387069
     atom    2 type  1   force =     0.03585102    0.01082262  -74.32541189
     atom    3 type  1   force =    -0.03585338    0.01082415  -74.32541230
     atom    4 type  1   force =     0.02734222    0.02560440  -74.32543583
     atom    5 type  1   force =     0.00000020   -0.00000664  -74.31917804
     atom    6 type  1   force =    -0.02734228    0.02560727  -74.32543494
     atom    7 type  1   force =    -0.00850864   -0.03643327  -74.32543285
     atom    8 type  1   force =     0.00851124   -0.03643194  -74.32543154
     atom    9 type  1   force =    -0.00000286    0.00005252  -74.29643398
     atom   10 type  1   force =     0.06560155    0.03781272 -221.51534039
     atom   11 type  1   force =    -0.00000074   -0.08804509 -221.55289430
     atom   12 type  1   force =    -0.06560078    0.03781542 -221.51534078
     atom   13 type  1   force =    -0.07619552    0.04399254 -221.55291156
     atom   14 type  1   force =     0.07619774    0.04399460 -221.55291198
     atom   15 type  1   force =    -0.00000238    0.03874537 -221.38189726
     atom   16 type  1   force =     0.00000295   -0.07569039 -221.51537230
     atom   17 type  1   force =     0.03355191   -0.01931315 -221.38191143
     atom   18 type  1   force =    -0.03355525   -0.01931251 -221.38191137
     atom   19 type  1   force =     0.00000251    0.05527595 -368.04596331
     atom   20 type  1   force =     0.16585928    0.09570240 -370.66049572
     atom   21 type  1   force =    -0.16586124    0.09570445 -370.66049609
     atom   22 type  1   force =     0.04866895   -0.02808257 -368.94466683
     atom   23 type  1   force =     0.00000078   -0.19150135 -370.66048790
     atom   24 type  1   force =    -0.04866957   -0.02807987 -368.94466718
     atom   25 type  1   force =    -0.04791763   -0.02762578 -368.04596170
     atom   26 type  1   force =     0.04792038   -0.02762513 -368.04596163
     atom   27 type  1   force =    -0.00000326    0.05623891 -368.94467228
     atom   28 type  1   force =     0.00000311   -0.00003932 -517.10926661
     atom   29 type  1   force =     0.64792091    0.88816709 -515.89410894
     atom   30 type  1   force =    -0.64792320    0.88816841 -515.89410761
     atom   31 type  1   force =     1.09317133    0.11700255 -515.89408960
     atom   32 type  1   force =    -0.00000019   -0.00000927 -515.18973917
     atom   33 type  1   force =    -1.09317125    0.11700543 -515.89408868
     atom   34 type  1   force =     0.44524863   -1.00517112 -515.89408611
     atom   35 type  1   force =    -0.44524637   -1.00516958 -515.89408651
     atom   36 type  1   force =    -0.00000288    0.00005052 -517.90428766
     atom   37 type  2   force =    -0.00000002   -0.00000069 -209.06580874
     atom   38 type  3   force =    -0.00000001   -0.00000036 -334.24388984
     The core correction contribution to forces
     atom    1 type  1   force =     0.00000000   -0.00000007    0.01669733
     atom    2 type  1   force =    -0.00011664    0.00013935    0.01690698
     atom    3 type  1   force =     0.00011663    0.00013935    0.01690698
     atom    4 type  1   force =     0.00006242   -0.00017072    0.01690696
     atom    5 type  1   force =    -0.00000000   -0.00000000    0.01632414
     atom    6 type  1   force =    -0.00006242   -0.00017072    0.01690696
     atom    7 type  1   force =     0.00017906    0.00003135    0.01690696
     atom    8 type  1   force =    -0.00017906    0.00003135    0.01690696
     atom    9 type  1   force =    -0.00000000    0.00000005    0.01694442
     atom   10 type  1   force =     0.00038004    0.00021935   -0.00038099
     atom   11 type  1   force =     0.00000000   -0.00040380   -0.00103844
     atom   12 type  1   force =    -0.00038004    0.00021935   -0.00038099
     atom   13 type  1   force =    -0.00034965    0.00020187   -0.00103846
     atom   14 type  1   force =     0.00034965    0.00020187   -0.00103846
     atom   15 type  1   force =    -0.00000000    0.00008146    0.00012314
     atom   16 type  1   force =     0.00000000   -0.00043876   -0.00038103
     atom   17 type  1   force =     0.00007055   -0.00004066    0.00012312
     atom   18 type  1   force =    -0.00007055   -0.00004066    0.00012312
     atom   19 type  1   force =     0.00000000   -0.00015254    0.00048999
     atom   20 type  1   force =     0.00121758    0.00070291    0.00063499
     atom   21 type  1   force =    -0.00121758    0.00070292    0.00063499
     atom   22 type  1   force =     0.00027643   -0.00015959    0.00112061
     atom   23 type  1   force =    -0.00000000   -0.00140593    0.00063500
     atom   24 type  1   force =    -0.00027642   -0.00015959    0.00112061
     atom   25 type  1   force =     0.00013206    0.00007630    0.00049000
     atom   26 type  1   force =    -0.00013206    0.00007631    0.00049000
     atom   27 type  1   force =    -0.00000000    0.00031925    0.00112061
     atom   28 type  1   force =     0.00000000   -0.00000005   -0.01720102
     atom   29 type  1   force =    -0.00034251   -0.00067760   -0.01714389
     atom   30 type  1   force =     0.00034251   -0.00067760   -0.01714388
     atom   31 type  1   force =    -0.00075802    0.00004215   -0.01714387
     atom   32 type  1   force =     0.00000000    0.00000000    0.02369566
     atom   33 type  1   force =     0.00075802    0.00004215   -0.01714387
     atom   34 type  1   force =    -0.00041551    0.00063546   -0.01714386
     atom   35 type  1   force =     0.00041551    0.00063546   -0.01714386
     atom   36 type  1   force =    -0.00000000    0.00000006   -0.01765204
     atom   37 type  2   force =    -0.00000000    0.00000004   -0.00380102
     atom   38 type  3   force =    -0.00000000    0.00000000    0.01804041
     The Hubbard contrib.    to forces
     atom    1 type  1   force =     0.00000000    0.00000000    0.00000000
     atom    2 type  1   force =     0.00000000    0.00000000    0.00000000
     atom    3 type  1   force =     0.00000000    0.00000000    0.00000000
     atom    4 type  1   force =     0.00000000    0.00000000    0.00000000
     atom    5 type  1   force =     0.00000000    0.00000000    0.00000000
     atom    6 type  1   force =     0.00000000    0.00000000    0.00000000
     atom    7 type  1   force =     0.00000000    0.00000000    0.00000000
     atom    8 type  1   force =     0.00000000    0.00000000    0.00000000
     atom    9 type  1   force =     0.00000000    0.00000000    0.00000000
     atom   10 type  1   force =     0.00000000    0.00000000    0.00000000
     atom   11 type  1   force =     0.00000000    0.00000000    0.00000000
     atom   12 type  1   force =     0.00000000    0.00000000    0.00000000
     atom   13 type  1   force =     0.00000000    0.00000000    0.00000000
     atom   14 type  1   force =     0.00000000    0.00000000    0.00000000
     atom   15 type  1   force =     0.00000000    0.00000000    0.00000000
     atom   16 type  1   force =     0.00000000    0.00000000    0.00000000
     atom   17 type  1   force =     0.00000000    0.00000000    0.00000000
     atom   18 type  1   force =     0.00000000    0.00000000    0.00000000
     atom   19 type  1   force =     0.00000000    0.00000000    0.00000000
     atom   20 type  1   force =     0.00000000    0.00000000    0.00000000
     atom   21 type  1   force =     0.00000000    0.00000000    0.00000000
     atom   22 type  1   force =     0.00000000    0.00000000    0.00000000
     atom   23 type  1   force =     0.00000000    0.00000000    0.00000000
     atom   24 type  1   force =     0.00000000    0.00000000    0.00000000
     atom   25 type  1   force =     0.00000000    0.00000000    0.00000000
     atom   26 type  1   force =     0.00000000    0.00000000    0.00000000
     atom   27 type  1   force =     0.00000000    0.00000000    0.00000000
     atom   28 type  1   force =     0.00000000    0.00000000    0.00000000
     atom   29 type  1   force =     0.00000000    0.00000000    0.00000000
     atom   30 type  1   force =     0.00000000    0.00000000    0.00000000
     atom   31 type  1   force =     0.00000000    0.00000000    0.00000000
     atom   32 type  1   force =     0.00000000    0.00000000    0.00000000
     atom   33 type  1   force =     0.00000000    0.00000000    0.00000000
     atom   34 type  1   force =     0.00000000    0.00000000    0.00000000
     atom   35 type  1   force =     0.00000000    0.00000000    0.00000000
     atom   36 type  1   force =     0.00000000    0.00000000    0.00000000
     atom   37 type  2   force =     0.00000000    0.00000000    0.00000000
     atom   38 type  3   force =     0.00000000    0.00000000    0.00000000
     The SCF correction term to forces
     atom    1 type  1   force =     0.00000000    0.00000000    0.00000000
     atom    2 type  1   force =     0.00000000    0.00000000    0.00000000
     atom    3 type  1   force =     0.00000000    0.00000000    0.00000000
     atom    4 type  1   force =     0.00000000    0.00000000    0.00000000
     atom    5 type  1   force =     0.00000000    0.00000000    0.00000000
     atom    6 type  1   force =     0.00000000    0.00000000    0.00000000
     atom    7 type  1   force =     0.00000000    0.00000000    0.00000000
     atom    8 type  1   force =     0.00000000    0.00000000    0.00000000
     atom    9 type  1   force =     0.00000000    0.00000000    0.00000000
     atom   10 type  1   force =    -0.00000008   -0.00000005   -0.00000202
     atom   11 type  1   force =     0.00000001    0.00000004   -0.00000208
     atom   12 type  1   force =     0.00000008   -0.00000005   -0.00000202
     atom   13 type  1   force =     0.00000004   -0.00000001   -0.00000208
     atom   14 type  1   force =    -0.00000003   -0.00000002   -0.00000209
     atom   15 type  1   force =    -0.00000000   -0.00000007   -0.00000211
     atom   16 type  1   force =    -0.00000000    0.00000009   -0.00000202
     atom   17 type  1   force =    -0.00000006    0.00000003   -0.00000211
     atom   18 type  1   force =     0.00000007    0.00000004   -0.00000210
     atom   19 type  1   force =    -0.00000001   -0.00000016   -0.00000274
     atom   20 type  1   force =    -0.00000036   -0.00000021   -0.00000324
     atom   21 type  1   force =     0.00000036   -0.00000021   -0.00000324
     atom   22 type  1   force =    -0.00000012    0.00000007   -0.00000282
     atom   23 type  1   force =     0.00000000    0.00000042   -0.00000325
     atom   24 type  1   force =     0.00000012    0.00000007   -0.00000282
     atom   25 type  1   force =     0.00000013    0.00000008   -0.00000274
     atom   26 type  1   force =    -0.00000014    0.00000008   -0.00000274
     atom   27 type  1   force =     0.00000000   -0.00000014   -0.00000282
     atom   28 type  1   force =    -0.00000000    0.00000000   -0.00000062
     atom   29 type  1   force =    -0.00000031   -0.00000045   -0.00000051
     atom   30 type  1   force =     0.00000031   -0.00000044   -0.00000051
     atom   31 type  1   force =    -0.00000054   -0.00000005   -0.00000050
     atom   32 type  1   force =    -0.00000000   -0.00000000   -0.00000080
     atom   33 type  1   force =     0.00000054   -0.00000005   -0.00000051
     atom   34 type  1   force =    -0.00000023    0.00000049   -0.00000051
     atom   35 type  1   force =     0.00000023    0.00000049   -0.00000050
     atom   36 type  1   force =    -0.00000000    0.00000000   -0.00000048
     atom   37 type  2   force =    -0.00000000   -0.00000000   -0.00000017
     atom   38 type  3   force =    -0.00000000   -0.00000000   -0.00000046

     Total force =     0.000133     Total SCF correction =     0.000011

     Writing all to output data dir tmp/Cu-vib.save/

     General routines

     Parallel routines

     PAW routines

   This run was terminated on:   1:15: 6  15Jul2024

   JOB DONE.