     Program PWSCF v.7.2 starts on  4Oct2024 at 10: 1:41

     Reading input from slab_1050.pwi
Warning: card &CELL ignored
Warning: card / ignored

     Current dimensions of program PWSCF are:
     Max number of different atomic species (ntypx) = 10
     Max number of k-points (npk) =  40000
     Max angular momentum in pseudopotentials (lmaxx) =  4
     file Cu.pbe-dn-kjpaw_psl.1.0.0.UPF: wavefunction(s)  4S 3D renormalized
     file C.pbe-n-kjpaw_psl.1.0.0.UPF: wavefunction(s)  2S 2P renormalized
     file O.pbe-n-kjpaw_psl.1.0.0.UPF: wavefunction(s)  2S 2P renormalized

     IMPORTANT: XC functional enforced from input :
     Exchange-correlation= BEEF-VDW
                           (   1   4  43  14   2   0   0)
     Any further DFT definition will be discarded
     Please, verify this is what you really want

     Message from routine setup:
     using ibrav=0 with symmetry is DISCOURAGED, use correct ibrav instead

     R & G space division:  proc/nbgrp/npool/nimage =      64
     Subspace diagonalization in iterative solution of the eigenvalue problem:
     one sub-group per band group will be used

     Using Slab Decomposition

     Title:
     slab_1050

     bravais-lattice index     =            0
     lattice parameter (alat)  =      14.6270  a.u.
     unit-cell volume          =    7464.9188 (a.u.)^3
     number of atoms/cell      =           38
     number of atomic types    =            3
     number of electrons       =       406.00
     number of Kohn-Sham states=          244
     kinetic-energy cutoff     =      77.1736  Ry
     charge density cutoff     =     771.7358  Ry
     scf convergence threshold =      7.3E-12
     mixing beta               =       0.3333
     number of iterations used =           12  plain     mixing
     energy convergence thresh.=      7.3E-07
     force convergence thresh. =      3.9E-04
     Exchange-correlation= BEEF-VDW
                           (   1   4  43  14   2   0   0)
     nstep                     =           50

     Effective Screening Medium Method
     Boundary Conditions: Vacuum-Slab-Metal
     total charge in unit cell        =   0.0000
     grid points for fit at edges     =        4

     celldm(1)=  14.626996  celldm(2)=   0.000000  celldm(3)=   0.000000
     celldm(4)=   0.000000  celldm(5)=   0.000000  celldm(6)=   0.000000

     crystal axes: (cart. coord. in units of alat)
               a(1) = (   1.000000   0.000000   0.000000 )
               a(2) = (   0.500000   0.866025   0.000000 )
               a(3) = (   0.000000   0.000000   2.754413 )

     reciprocal axes: (cart. coord. in units 2 pi/alat)
               b(1) = (  1.000000 -0.577350  0.000000 )
               b(2) = (  0.000000  1.154701  0.000000 )
               b(3) = (  0.000000  0.000000  0.363054 )

     PseudoPot. # 1 for Cu read from file:
     /home/k0227/k022716/QE/pseudo/Cu.pbe-dn-kjpaw_psl.1.0.0.UPF
     MD5 check sum: 67c40f9e1593dc2d139023e70404cc2a
     Pseudo is Projector augmented-wave + core cor, Zval = 11.0
     Generated using "atomic" code by A. Dal Corso  v.6.1 svn rev. 13369
     Shape of augmentation charge: PSQ
     Using radial grid of 1199 points,  6 beta functions with:
                l(1) =   0
                l(2) =   0
                l(3) =   1
                l(4) =   1
                l(5) =   2
                l(6) =   2
     Q(r) pseudized with 0 coefficients

     PseudoPot. # 2 for C  read from file:
     /home/k0227/k022716/QE/pseudo/C.pbe-n-kjpaw_psl.1.0.0.UPF
     MD5 check sum: 92a742b3ac0ce1af44b5aa3f9352ca21
     Pseudo is Projector augmented-wave + core cor, Zval =  4.0
     Generated using "atomic" code by A. Dal Corso  v.6.1 svn rev. 13369
     Shape of augmentation charge: PSQ
     Using radial grid of 1073 points,  4 beta functions with:
                l(1) =   0
                l(2) =   0
                l(3) =   1
                l(4) =   1
     Q(r) pseudized with 0 coefficients

     PseudoPot. # 3 for O  read from file:
     /home/k0227/k022716/QE/pseudo/O.pbe-n-kjpaw_psl.1.0.0.UPF
     MD5 check sum: c61d840054b6bba219e553541e327118
     Pseudo is Projector augmented-wave + core cor, Zval =  6.0
     Generated using "atomic" code by A. Dal Corso  v.6.1 svn rev. 13369
     Shape of augmentation charge: PSQ
     Using radial grid of 1095 points,  4 beta functions with:
                l(1) =   0
                l(2) =   0
                l(3) =   1
                l(4) =   1
     Q(r) pseudized with 0 coefficients

     atomic species   valence    mass     pseudopotential
        Cu            11.00    63.54600     Cu( 1.00)
        C              4.00    12.01100     C ( 1.00)
        O              6.00    15.99900     O ( 1.00)

      6 Sym. Ops. (no inversion) found

                                    s                        frac. trans.

      isym =  1     identity

 cryst.   s( 1) = (     1          0          0      )
                  (     0          1          0      )
                  (     0          0          1      )

 cart.    s( 1) = (  1.0000000  0.0000000  0.0000000 )
                  (  0.0000000  1.0000000  0.0000000 )
                  (  0.0000000  0.0000000  1.0000000 )

      isym =  2     120 deg rotation - cryst. axis [0,0,1]

[...]

      isym =  3     120 deg rotation - cryst. axis [0,0,-1]

[...]

      isym =  4     inv. 180 deg rotation - cart. axis [1,0,0]

[...]

      isym =  5     inv. 180 deg rotation - cryst. axis [0,1,0]

[...]

      isym =  6     inv. 180 deg rotation - cryst. axis [1,1,0]

 cryst.   s( 6) = (     1         -1          0      )
                  (     0         -1          0      )
                  (     0          0          1      )

 cart.    s( 6) = (  0.5000000 -0.8660254  0.0000000 )
                  ( -0.8660254 -0.5000000  0.0000000 )
                  (  0.0000000  0.0000000  1.0000000 )

   Cartesian axes

     site n.     atom                  positions (alat units)
         1           Cu  tau(   1) = (   0.0000000   0.0000000  -0.8214102  )
         2           Cu  tau(   2) = (   0.3333333   0.0000000  -0.8214102  )
         3           Cu  tau(   3) = (   0.6666667   0.0000000  -0.8214102  )
         4           Cu  tau(   4) = (   0.1666667   0.2886751  -0.8214102  )
         5           Cu  tau(   5) = (   0.5000000   0.2886751  -0.8214102  )
         6           Cu  tau(   6) = (   0.8333333   0.2886751  -0.8214102  )
         7           Cu  tau(   7) = (   0.3333333   0.5773503  -0.8214102  )
         8           Cu  tau(   8) = (   0.6666667   0.5773503  -0.8214102  )
         9           Cu  tau(   9) = (   1.0000000   0.5773503  -0.8214102  )
        10           Cu  tau(  10) = (   0.1666667   0.0962250  -0.5492447  )
        11           Cu  tau(  11) = (   0.5000000   0.0962250  -0.5492447  )
        12           Cu  tau(  12) = (   0.8333333   0.0962250  -0.5492447  )
        13           Cu  tau(  13) = (   0.3333333   0.3849002  -0.5492447  )
        14           Cu  tau(  14) = (   0.6666667   0.3849002  -0.5492447  )
        15           Cu  tau(  15) = (   1.0000000   0.3849002  -0.5492447  )
        16           Cu  tau(  16) = (   0.5000000   0.6735753  -0.5492447  )
        17           Cu  tau(  17) = (   0.8333333   0.6735753  -0.5492447  )
        18           Cu  tau(  18) = (   1.1666667   0.6735753  -0.5492447  )
        19           Cu  tau(  19) = (   0.0000000   0.1924501  -0.2770791  )
        20           Cu  tau(  20) = (   0.3333333   0.1924501  -0.2770791  )
        21           Cu  tau(  21) = (   0.6666667   0.1924501  -0.2770791  )
        22           Cu  tau(  22) = (   0.1666667   0.4811252  -0.2770791  )
        23           Cu  tau(  23) = (   0.5000000   0.4811252  -0.2770791  )
        24           Cu  tau(  24) = (   0.8333333   0.4811252  -0.2770791  )
        25           Cu  tau(  25) = (   0.3333333   0.7698004  -0.2770791  )
        26           Cu  tau(  26) = (   0.6666667   0.7698004  -0.2770791  )
        27           Cu  tau(  27) = (   1.0000000   0.7698004  -0.2770791  )
        28           Cu  tau(  28) = (   0.0000000   0.0000000  -0.0049136  )
        29           Cu  tau(  29) = (   0.3333333   0.0000000  -0.0049136  )
        30           Cu  tau(  30) = (   0.6666667   0.0000000  -0.0049136  )
        31           Cu  tau(  31) = (   0.1666667   0.2886751  -0.0049136  )
        32           Cu  tau(  32) = (   0.5000000   0.2886751  -0.0049136  )
        33           Cu  tau(  33) = (   0.8333333   0.2886751  -0.0049136  )
        34           Cu  tau(  34) = (   0.3333333   0.5773503  -0.0049136  )
        35           Cu  tau(  35) = (   0.6666667   0.5773503  -0.0049136  )
        36           Cu  tau(  36) = (   1.0000000   0.5773503  -0.0049136  )
        37           C   tau(  37) = (   0.5000000   0.2886751   0.1010258  )
        38           O   tau(  38) = (   0.5000000   0.2886751   0.2470155  )

   Crystallographic axes

     site n.     atom                  positions (cryst. coord.)
         1           Cu  tau(   1) = (  0.0000000  0.0000000 -0.2982161  )
         2           Cu  tau(   2) = (  0.3333333  0.0000000 -0.2982161  )
         3           Cu  tau(   3) = (  0.6666667  0.0000000 -0.2982161  )
         4           Cu  tau(   4) = (  0.0000000  0.3333333 -0.2982161  )
         5           Cu  tau(   5) = (  0.3333333  0.3333333 -0.2982161  )
         6           Cu  tau(   6) = (  0.6666667  0.3333333 -0.2982161  )
         7           Cu  tau(   7) = ( -0.0000000  0.6666667 -0.2982161  )
         8           Cu  tau(   8) = (  0.3333333  0.6666667 -0.2982161  )
         9           Cu  tau(   9) = (  0.6666667  0.6666667 -0.2982161  )
        10           Cu  tau(  10) = (  0.1111111  0.1111111 -0.1994054  )
        11           Cu  tau(  11) = (  0.4444444  0.1111111 -0.1994054  )
        12           Cu  tau(  12) = (  0.7777778  0.1111111 -0.1994054  )
        13           Cu  tau(  13) = (  0.1111111  0.4444444 -0.1994054  )
        14           Cu  tau(  14) = (  0.4444444  0.4444444 -0.1994054  )
        15           Cu  tau(  15) = (  0.7777778  0.4444444 -0.1994054  )
        16           Cu  tau(  16) = (  0.1111111  0.7777778 -0.1994054  )
        17           Cu  tau(  17) = (  0.4444444  0.7777778 -0.1994054  )
        18           Cu  tau(  18) = (  0.7777778  0.7777778 -0.1994054  )
        19           Cu  tau(  19) = ( -0.1111111  0.2222222 -0.1005946  )
        20           Cu  tau(  20) = (  0.2222222  0.2222222 -0.1005946  )
        21           Cu  tau(  21) = (  0.5555556  0.2222222 -0.1005946  )
        22           Cu  tau(  22) = ( -0.1111111  0.5555556 -0.1005946  )
        23           Cu  tau(  23) = (  0.2222222  0.5555556 -0.1005946  )
        24           Cu  tau(  24) = (  0.5555556  0.5555556 -0.1005946  )
        25           Cu  tau(  25) = ( -0.1111111  0.8888889 -0.1005946  )
        26           Cu  tau(  26) = (  0.2222222  0.8888889 -0.1005946  )
        27           Cu  tau(  27) = (  0.5555556  0.8888889 -0.1005946  )
        28           Cu  tau(  28) = (  0.0000000  0.0000000 -0.0017839  )
        29           Cu  tau(  29) = (  0.3333333  0.0000000 -0.0017839  )
[...]
     atom   17 type  1   force =    -0.03669572    0.02118628  221.45146271
     atom   18 type  1   force =     0.03669572    0.02118628  221.45146271
     atom   19 type  1   force =     0.00000000   -0.06136163  368.11257855
     atom   20 type  1   force =    -0.14598563   -0.08428484  370.80469735
     atom   21 type  1   force =     0.14598563   -0.08428484  370.80469735
     atom   22 type  1   force =    -0.05102777    0.02946090  368.99747106
     atom   23 type  1   force =    -0.00000000    0.16856968  370.80469735
     atom   24 type  1   force =     0.05102777    0.02946090  368.99747106
     atom   25 type  1   force =     0.05314073    0.03068081  368.11257855
     atom   26 type  1   force =    -0.05314073    0.03068081  368.11257855
     atom   27 type  1   force =    -0.00000000   -0.05892180  368.99747106
     atom   28 type  1   force =     0.00000000   -0.00000000  517.13404819
     atom   29 type  1   force =    -0.66201403   -0.90997655  515.89885855
     atom   30 type  1   force =     0.66201403   -0.90997655  515.89885855
     atom   31 type  1   force =    -1.11906983   -0.11833269  515.89885855
     atom   32 type  1   force =    -0.00000000   -0.00000000  515.47274692
     atom   33 type  1   force =     1.11906983   -0.11833269  515.89885855
     atom   34 type  1   force =    -0.45705580    1.02830924  515.89885855
     atom   35 type  1   force =     0.45705580    1.02830924  515.89885855
     atom   36 type  1   force =    -0.00000000   -0.00000000  517.91657733
     atom   37 type  2   force =    -0.00000000    0.00000000  208.34804891
     atom   38 type  3   force =    -0.00000000    0.00000000  337.09059891
     The local contribution  to forces
     atom    1 type  1   force =     0.00000000    0.00000000  -74.48553174
     atom    2 type  1   force =     0.03596873    0.00887094  -74.34564758
     atom    3 type  1   force =    -0.03596874    0.00887094  -74.34564758
     atom    4 type  1   force =     0.02566682    0.02671436  -74.34564758
     atom    5 type  1   force =    -0.00000000   -0.00000000  -74.34027449
     atom    6 type  1   force =    -0.02566682    0.02671436  -74.34564758
     atom    7 type  1   force =    -0.01030190   -0.03558531  -74.34564758
     atom    8 type  1   force =     0.01030190   -0.03558531  -74.34564758
     atom    9 type  1   force =    -0.00000000   -0.00000000  -74.31391599
     atom   10 type  1   force =     0.06357839    0.03670700 -221.58659163
     atom   11 type  1   force =    -0.00000000   -0.09155147 -221.62710075
     atom   12 type  1   force =    -0.06357839    0.03670700 -221.58659163
     atom   13 type  1   force =    -0.07928589    0.04577572 -221.62710075
     atom   14 type  1   force =     0.07928589    0.04577572 -221.62710075
     atom   15 type  1   force =    -0.00000000    0.04131186 -221.43447621
     atom   16 type  1   force =    -0.00000000   -0.07341402 -221.58659163
     atom   17 type  1   force =     0.03577713   -0.02065594 -221.43447621
     atom   18 type  1   force =    -0.03577712   -0.02065594 -221.43447621
     atom   19 type  1   force =    -0.00000000    0.05708857 -368.14008998
     atom   20 type  1   force =     0.15978752    0.09225337 -370.81045464
     atom   21 type  1   force =    -0.15978752    0.09225337 -370.81045464
     atom   22 type  1   force =     0.04419383   -0.02551532 -369.02877492
     atom   23 type  1   force =    -0.00000000   -0.18450672 -370.81045464
     atom   24 type  1   force =    -0.04419384   -0.02551532 -369.02877492
     atom   25 type  1   force =    -0.04944014   -0.02854428 -368.14008998
     atom   26 type  1   force =     0.04944013   -0.02854428 -368.14008998
     atom   27 type  1   force =    -0.00000000    0.05103065 -369.02877492
     atom   28 type  1   force =     0.00000000    0.00000000 -517.23289083
     atom   29 type  1   force =     0.64853716    0.88926593 -516.02806134
     atom   30 type  1   force =    -0.64853716    0.88926593 -516.02806134
     atom   31 type  1   force =     1.09439546    0.11701668 -516.02806134
     atom   32 type  1   force =    -0.00000000   -0.00000000 -515.51276838
     atom   33 type  1   force =    -1.09439546    0.11701668 -516.02806134
     atom   34 type  1   force =     0.44585832   -1.00628262 -516.02806134
     atom   35 type  1   force =    -0.44585832   -1.00628262 -516.02806134
     atom   36 type  1   force =    -0.00000000   -0.00000000 -518.01977306
     atom   37 type  2   force =    -0.00000000   -0.00000000 -209.14228039
     atom   38 type  3   force =    -0.00000000   -0.00000000 -334.34737183
     The core correction contribution to forces
     atom    1 type  1   force =     0.00000000    0.00000000    0.01668460
     atom    2 type  1   force =    -0.00012190    0.00012841    0.01688683
     atom    3 type  1   force =     0.00012190    0.00012841    0.01688683
     atom    4 type  1   force =     0.00005025   -0.00016977    0.01688683
     atom    5 type  1   force =    -0.00000000   -0.00000000    0.01630778
     atom    6 type  1   force =    -0.00005025   -0.00016977    0.01688683
     atom    7 type  1   force =     0.00017215    0.00004136    0.01688683
     atom    8 type  1   force =    -0.00017215    0.00004136    0.01688683
     atom    9 type  1   force =    -0.00000000   -0.00000000    0.01693252
     atom   10 type  1   force =     0.00037220    0.00021489   -0.00037014
     atom   11 type  1   force =    -0.00000000   -0.00040457   -0.00102731
     atom   12 type  1   force =    -0.00037220    0.00021489   -0.00037014
     atom   13 type  1   force =    -0.00035037    0.00020228   -0.00102731
     atom   14 type  1   force =     0.00035037    0.00020228   -0.00102731
     atom   15 type  1   force =    -0.00000000    0.00008613    0.00013445
     atom   16 type  1   force =    -0.00000000   -0.00042978   -0.00037014
     atom   17 type  1   force =     0.00007459   -0.00004307    0.00013445
     atom   18 type  1   force =    -0.00007459   -0.00004307    0.00013445
     atom   19 type  1   force =    -0.00000000   -0.00015004    0.00048034
     atom   20 type  1   force =     0.00121085    0.00069908    0.00064150
     atom   21 type  1   force =    -0.00121085    0.00069908    0.00064150
     atom   22 type  1   force =     0.00027117   -0.00015656    0.00110264
     atom   23 type  1   force =    -0.00000000   -0.00139816    0.00064150
     atom   24 type  1   force =    -0.00027117   -0.00015656    0.00110264
     atom   25 type  1   force =     0.00012994    0.00007502    0.00048034
     atom   26 type  1   force =    -0.00012994    0.00007502    0.00048034
     atom   27 type  1   force =    -0.00000000    0.00031312    0.00110264
     atom   28 type  1   force =    -0.00000000    0.00000000   -0.01717314
     atom   29 type  1   force =    -0.00034156   -0.00067087   -0.01711103
     atom   30 type  1   force =     0.00034156   -0.00067087   -0.01711103
     atom   31 type  1   force =    -0.00075177    0.00003963   -0.01711103
     atom   32 type  1   force =    -0.00000000   -0.00000000    0.02367388
     atom   33 type  1   force =     0.00075177    0.00003963   -0.01711103
     atom   34 type  1   force =    -0.00041020    0.00063123   -0.01711103
     atom   35 type  1   force =     0.00041020    0.00063123   -0.01711103
     atom   36 type  1   force =    -0.00000000   -0.00000000   -0.01763468
     atom   37 type  2   force =     0.00000000    0.00000000   -0.00330810
     atom   38 type  3   force =     0.00000000    0.00000000    0.01792490
     The Hubbard contrib.    to forces
     atom    1 type  1   force =     0.00000000    0.00000000    0.00000000
     atom    2 type  1   force =     0.00000000    0.00000000    0.00000000
     atom    3 type  1   force =     0.00000000    0.00000000    0.00000000
     atom    4 type  1   force =     0.00000000    0.00000000    0.00000000
     atom    5 type  1   force =     0.00000000    0.00000000    0.00000000
     atom    6 type  1   force =     0.00000000    0.00000000    0.00000000
     atom    7 type  1   force =     0.00000000    0.00000000    0.00000000
     atom    8 type  1   force =     0.00000000    0.00000000    0.00000000
     atom    9 type  1   force =     0.00000000    0.00000000    0.00000000
     atom   10 type  1   force =     0.00000000    0.00000000    0.00000000
     atom   11 type  1   force =     0.00000000    0.00000000    0.00000000
     atom   12 type  1   force =     0.00000000    0.00000000    0.00000000
     atom   13 type  1   force =     0.00000000    0.00000000    0.00000000
     atom   14 type  1   force =     0.00000000    0.00000000    0.00000000
     atom   15 type  1   force =     0.00000000    0.00000000    0.00000000
     atom   16 type  1   force =     0.00000000    0.00000000    0.00000000
     atom   17 type  1   force =     0.00000000    0.00000000    0.00000000
     atom   18 type  1   force =     0.00000000    0.00000000    0.00000000
     atom   19 type  1   force =     0.00000000    0.00000000    0.00000000
     atom   20 type  1   force =     0.00000000    0.00000000    0.00000000
     atom   21 type  1   force =     0.00000000    0.00000000    0.00000000
     atom   22 type  1   force =     0.00000000    0.00000000    0.00000000
     atom   23 type  1   force =     0.00000000    0.00000000    0.00000000
     atom   24 type  1   force =     0.00000000    0.00000000    0.00000000
     atom   25 type  1   force =     0.00000000    0.00000000    0.00000000
     atom   26 type  1   force =     0.00000000    0.00000000    0.00000000
     atom   27 type  1   force =     0.00000000    0.00000000    0.00000000
     atom   28 type  1   force =     0.00000000    0.00000000    0.00000000
     atom   29 type  1   force =     0.00000000    0.00000000    0.00000000
     atom   30 type  1   force =     0.00000000    0.00000000    0.00000000
     atom   31 type  1   force =     0.00000000    0.00000000    0.00000000
     atom   32 type  1   force =     0.00000000    0.00000000    0.00000000
     atom   33 type  1   force =     0.00000000    0.00000000    0.00000000
     atom   34 type  1   force =     0.00000000    0.00000000    0.00000000
     atom   35 type  1   force =     0.00000000    0.00000000    0.00000000
     atom   36 type  1   force =     0.00000000    0.00000000    0.00000000
     atom   37 type  2   force =     0.00000000    0.00000000    0.00000000
     atom   38 type  3   force =     0.00000000    0.00000000    0.00000000
     The SCF correction term to forces
     atom    1 type  1   force =     0.00000000    0.00000000    0.00000000
     atom    2 type  1   force =     0.00000000    0.00000000    0.00000000
     atom    3 type  1   force =     0.00000000    0.00000000    0.00000000
     atom    4 type  1   force =     0.00000000    0.00000000    0.00000000
     atom    5 type  1   force =     0.00000000    0.00000000    0.00000000
     atom    6 type  1   force =     0.00000000    0.00000000    0.00000000
     atom    7 type  1   force =     0.00000000    0.00000000    0.00000000
     atom    8 type  1   force =     0.00000000    0.00000000    0.00000000
     atom    9 type  1   force =     0.00000000    0.00000000    0.00000000
     atom   10 type  1   force =     0.00000006    0.00000004   -0.00000014
     atom   11 type  1   force =     0.00000000   -0.00000000   -0.00000018
     atom   12 type  1   force =    -0.00000006    0.00000004   -0.00000014
     atom   13 type  1   force =    -0.00000000    0.00000000   -0.00000018
     atom   14 type  1   force =     0.00000000    0.00000000   -0.00000018
     atom   15 type  1   force =    -0.00000000    0.00000002   -0.00000007
     atom   16 type  1   force =     0.00000000   -0.00000007   -0.00000014
     atom   17 type  1   force =     0.00000001   -0.00000001   -0.00000007
     atom   18 type  1   force =    -0.00000001   -0.00000001   -0.00000007
     atom   19 type  1   force =     0.00000000    0.00000002   -0.00000012
     atom   20 type  1   force =     0.00000001    0.00000000   -0.00000019
     atom   21 type  1   force =    -0.00000001    0.00000000   -0.00000019
     atom   22 type  1   force =    -0.00000006    0.00000003   -0.00000018
     atom   23 type  1   force =     0.00000000   -0.00000001   -0.00000019
     atom   24 type  1   force =     0.00000006    0.00000003   -0.00000018
     atom   25 type  1   force =    -0.00000001   -0.00000001   -0.00000012
     atom   26 type  1   force =     0.00000001   -0.00000001   -0.00000012
     atom   27 type  1   force =     0.00000000   -0.00000007   -0.00000018
     atom   28 type  1   force =     0.00000000   -0.00000000   -0.00000005
     atom   29 type  1   force =     0.00000001   -0.00000011   -0.00000016
     atom   30 type  1   force =    -0.00000001   -0.00000011   -0.00000016
     atom   31 type  1   force =    -0.00000009    0.00000006   -0.00000016
     atom   32 type  1   force =     0.00000000    0.00000000    0.00000019
     atom   33 type  1   force =     0.00000009    0.00000006   -0.00000016
     atom   34 type  1   force =    -0.00000010    0.00000005   -0.00000016
     atom   35 type  1   force =     0.00000010    0.00000005   -0.00000016
     atom   36 type  1   force =    -0.00000000    0.00000000   -0.00000002
     atom   37 type  2   force =    -0.00000000    0.00000000   -0.00000006
     atom   38 type  3   force =     0.00000000   -0.00000000    0.00000017

     Total force =     0.000145     Total SCF correction =     0.000001
     Energy error            =      2.3E-07 Ry
     Gradient error          =      4.1E-05 Ry/Bohr

     bfgs converged in  44 scf cycles and  43 bfgs steps
     (criteria: energy <  7.3E-07 Ry, force <  3.9E-04 Ry/Bohr)

     End of BFGS Geometry Optimization

     Final energy             =   -7901.9033509820 Ry

     File tmp_1050/slab_1050.bfgs deleted, as requested
Begin final coordinates

ATOMIC_POSITIONS (angstrom)
Cu            0.0000000000        0.0000000000       -6.3579391979    0   0   0
Cu            2.5800910075        0.0000000000       -6.3579391979    0   0   0
Cu            5.1601820151        0.0000000000       -6.3579391979    0   0   0
Cu            1.2900455038        2.2344243566       -6.3579391979    0   0   0
Cu            3.8701365113        2.2344243566       -6.3579391979    0   0   0
Cu            6.4502275188        2.2344243566       -6.3579391979    0   0   0
Cu            2.5800910075        4.4688487132       -6.3579391979    0   0   0
Cu            5.1601820151        4.4688487132       -6.3579391979    0   0   0
Cu            7.7402730226        4.4688487132       -6.3579391979    0   0   0
Cu            1.2978639247        0.7493220863       -4.2673479624
Cu            3.8701365113        0.7449596068       -4.2688337178
Cu            6.4424090979        0.7493220863       -4.2673479624
Cu            2.5802221999        2.9791567315       -4.2688337178
Cu            5.1600508227        2.9791567315       -4.2688337178
Cu            7.7402730226        2.9800852323       -4.2690480902
Cu            3.8701365113        5.2046288973       -4.2673479624
Cu            6.4509660279        5.2132304537       -4.2690480902
Cu            9.0295800172        5.2132304537       -4.2690480902
Cu            0.0000000000        1.4863644436       -2.1961368841
Cu            2.5953531203        1.4984278226       -2.1533316186
Cu            5.1449199023        1.4984278226       -2.1533316186
Cu            1.2910477834        3.7234619279       -2.1818931445
Cu            3.8701365113        3.7064174245       -2.1533316186
Cu            6.4492252392        3.7234619279       -2.1818931445
Cu            2.5829071438        5.9600908480       -2.1961368841
Cu            5.1573658788        5.9600908480       -2.1961368841
Cu            7.7402730226        5.9596222837       -2.1818931445
Cu            0.0000000000        0.0000000000       -0.1071631499
Cu            2.5704979282       -0.0206088416       -0.1073124558
Cu            5.1697750944       -0.0206088416       -0.1073124558
Cu            1.2674011838        2.2364209271       -0.1073124558
Cu            3.8701365113        2.2344243566        0.0220280832
Cu            6.4728718388        2.2364209271       -0.1073124558
Cu            2.5670397667        4.4874609844       -0.1073124558
Cu            5.1732332559        4.4874609844       -0.1073124558
Cu            7.7402730226        4.4688487132       -0.0941526557
C             3.8701365113        2.2344243566        1.9010622812
O             3.8701365113        2.2344243566        3.0514235043
End final coordinates

     Writing all to output data dir tmp_1050/slab_1050.save/

     General routines

     Parallel routines

     PAW routines

   This run was terminated on:  19:37: 4   4Oct2024

   JOB DONE.