     Program PWSCF v.7.2 starts on  4Oct2024 at 10: 9:26

     Reading input from slab_1200.pwi
Warning: card &CELL ignored
Warning: card / ignored

     Current dimensions of program PWSCF are:
     Max number of different atomic species (ntypx) = 10
     Max number of k-points (npk) =  40000
     Max angular momentum in pseudopotentials (lmaxx) =  4
     file Cu.pbe-dn-kjpaw_psl.1.0.0.UPF: wavefunction(s)  4S 3D renormalized
     file C.pbe-n-kjpaw_psl.1.0.0.UPF: wavefunction(s)  2S 2P renormalized
     file O.pbe-n-kjpaw_psl.1.0.0.UPF: wavefunction(s)  2S 2P renormalized

     IMPORTANT: XC functional enforced from input :
     Exchange-correlation= BEEF-VDW
                           (   1   4  43  14   2   0   0)
     Any further DFT definition will be discarded
     Please, verify this is what you really want

     Message from routine setup:
     using ibrav=0 with symmetry is DISCOURAGED, use correct ibrav instead

     R & G space division:  proc/nbgrp/npool/nimage =      64
     Subspace diagonalization in iterative solution of the eigenvalue problem:
     one sub-group per band group will be used

     Using Slab Decomposition

     Title:
     slab_1200

     bravais-lattice index     =            0
     lattice parameter (alat)  =      14.6366  a.u.
     unit-cell volume          =    7476.2210 (a.u.)^3
     number of atoms/cell      =           38
     number of atomic types    =            3
     number of electrons       =       406.00
     number of Kohn-Sham states=          244
     kinetic-energy cutoff     =      88.1984  Ry
     charge density cutoff     =     881.9837  Ry
     scf convergence threshold =      7.3E-12
     mixing beta               =       0.3333
     number of iterations used =           12  plain     mixing
     energy convergence thresh.=      7.3E-07
     force convergence thresh. =      3.9E-04
     Exchange-correlation= BEEF-VDW
                           (   1   4  43  14   2   0   0)
     nstep                     =           50

     Effective Screening Medium Method
     Boundary Conditions: Vacuum-Slab-Metal
     total charge in unit cell        =   0.0000
     grid points for fit at edges     =        4

     celldm(1)=  14.636635  celldm(2)=   0.000000  celldm(3)=   0.000000
     celldm(4)=   0.000000  celldm(5)=   0.000000  celldm(6)=   0.000000

     crystal axes: (cart. coord. in units of alat)
               a(1) = (   1.000000   0.000000   0.000000 )
               a(2) = (   0.500000   0.866025   0.000000 )
               a(3) = (   0.000000   0.000000   2.753136 )

     reciprocal axes: (cart. coord. in units 2 pi/alat)
               b(1) = (  1.000000 -0.577350  0.000000 )
               b(2) = (  0.000000  1.154701  0.000000 )
               b(3) = (  0.000000  0.000000  0.363222 )

     PseudoPot. # 1 for Cu read from file:
     /home/k0227/k022716/QE/pseudo/Cu.pbe-dn-kjpaw_psl.1.0.0.UPF
     MD5 check sum: 67c40f9e1593dc2d139023e70404cc2a
     Pseudo is Projector augmented-wave + core cor, Zval = 11.0
     Generated using "atomic" code by A. Dal Corso  v.6.1 svn rev. 13369
     Shape of augmentation charge: PSQ
     Using radial grid of 1199 points,  6 beta functions with:
                l(1) =   0
                l(2) =   0
                l(3) =   1
                l(4) =   1
                l(5) =   2
                l(6) =   2
     Q(r) pseudized with 0 coefficients

     PseudoPot. # 2 for C  read from file:
     /home/k0227/k022716/QE/pseudo/C.pbe-n-kjpaw_psl.1.0.0.UPF
     MD5 check sum: 92a742b3ac0ce1af44b5aa3f9352ca21
     Pseudo is Projector augmented-wave + core cor, Zval =  4.0
     Generated using "atomic" code by A. Dal Corso  v.6.1 svn rev. 13369
     Shape of augmentation charge: PSQ
     Using radial grid of 1073 points,  4 beta functions with:
                l(1) =   0
                l(2) =   0
                l(3) =   1
                l(4) =   1
     Q(r) pseudized with 0 coefficients

     PseudoPot. # 3 for O  read from file:
     /home/k0227/k022716/QE/pseudo/O.pbe-n-kjpaw_psl.1.0.0.UPF
     MD5 check sum: c61d840054b6bba219e553541e327118
     Pseudo is Projector augmented-wave + core cor, Zval =  6.0
     Generated using "atomic" code by A. Dal Corso  v.6.1 svn rev. 13369
     Shape of augmentation charge: PSQ
     Using radial grid of 1095 points,  4 beta functions with:
                l(1) =   0
                l(2) =   0
                l(3) =   1
                l(4) =   1
     Q(r) pseudized with 0 coefficients

     atomic species   valence    mass     pseudopotential
        Cu            11.00    63.54600     Cu( 1.00)
        C              4.00    12.01100     C ( 1.00)
        O              6.00    15.99900     O ( 1.00)

      6 Sym. Ops. (no inversion) found

                                    s                        frac. trans.

      isym =  1     identity

 cryst.   s( 1) = (     1          0          0      )
                  (     0          1          0      )
                  (     0          0          1      )

 cart.    s( 1) = (  1.0000000  0.0000000  0.0000000 )
                  (  0.0000000  1.0000000  0.0000000 )
                  (  0.0000000  0.0000000  1.0000000 )

      isym =  2     120 deg rotation - cryst. axis [0,0,1]

[...]

      isym =  3     120 deg rotation - cryst. axis [0,0,-1]

[...]

      isym =  4     inv. 180 deg rotation - cart. axis [1,0,0]

[...]

      isym =  5     inv. 180 deg rotation - cryst. axis [0,1,0]

[...]

      isym =  6     inv. 180 deg rotation - cryst. axis [1,1,0]

 cryst.   s( 6) = (     1         -1          0      )
                  (     0         -1          0      )
                  (     0          0          1      )

 cart.    s( 6) = (  0.5000000 -0.8660254  0.0000000 )
                  ( -0.8660254 -0.5000000  0.0000000 )
                  (  0.0000000  0.0000000  1.0000000 )

   Cartesian axes

     site n.     atom                  positions (alat units)
         1           Cu  tau(   1) = (   0.0000000   0.0000000  -0.8212188  )
         2           Cu  tau(   2) = (   0.3333333   0.0000000  -0.8212188  )
         3           Cu  tau(   3) = (   0.6666667   0.0000000  -0.8212188  )
         4           Cu  tau(   4) = (   0.1666667   0.2886751  -0.8212188  )
         5           Cu  tau(   5) = (   0.5000000   0.2886751  -0.8212188  )
         6           Cu  tau(   6) = (   0.8333333   0.2886751  -0.8212188  )
         7           Cu  tau(   7) = (   0.3333333   0.5773503  -0.8212188  )
         8           Cu  tau(   8) = (   0.6666667   0.5773503  -0.8212188  )
         9           Cu  tau(   9) = (   1.0000000   0.5773503  -0.8212188  )
        10           Cu  tau(  10) = (   0.1666667   0.0962250  -0.5490532  )
        11           Cu  tau(  11) = (   0.5000000   0.0962250  -0.5490532  )
        12           Cu  tau(  12) = (   0.8333333   0.0962250  -0.5490532  )
        13           Cu  tau(  13) = (   0.3333333   0.3849002  -0.5490532  )
        14           Cu  tau(  14) = (   0.6666667   0.3849002  -0.5490532  )
        15           Cu  tau(  15) = (   1.0000000   0.3849002  -0.5490532  )
        16           Cu  tau(  16) = (   0.5000000   0.6735753  -0.5490532  )
        17           Cu  tau(  17) = (   0.8333333   0.6735753  -0.5490532  )
        18           Cu  tau(  18) = (   1.1666667   0.6735753  -0.5490532  )
        19           Cu  tau(  19) = (   0.0000000   0.1924501  -0.2768877  )
        20           Cu  tau(  20) = (   0.3333333   0.1924501  -0.2768877  )
        21           Cu  tau(  21) = (   0.6666667   0.1924501  -0.2768877  )
        22           Cu  tau(  22) = (   0.1666667   0.4811252  -0.2768877  )
        23           Cu  tau(  23) = (   0.5000000   0.4811252  -0.2768877  )
        24           Cu  tau(  24) = (   0.8333333   0.4811252  -0.2768877  )
        25           Cu  tau(  25) = (   0.3333333   0.7698004  -0.2768877  )
        26           Cu  tau(  26) = (   0.6666667   0.7698004  -0.2768877  )
        27           Cu  tau(  27) = (   1.0000000   0.7698004  -0.2768877  )
        28           Cu  tau(  28) = (   0.0000000   0.0000000  -0.0047222  )
        29           Cu  tau(  29) = (   0.3333333   0.0000000  -0.0047222  )
        30           Cu  tau(  30) = (   0.6666667   0.0000000  -0.0047222  )
        31           Cu  tau(  31) = (   0.1666667   0.2886751  -0.0047222  )
        32           Cu  tau(  32) = (   0.5000000   0.2886751  -0.0047222  )
        33           Cu  tau(  33) = (   0.8333333   0.2886751  -0.0047222  )
        34           Cu  tau(  34) = (   0.3333333   0.5773503  -0.0047222  )
        35           Cu  tau(  35) = (   0.6666667   0.5773503  -0.0047222  )
        36           Cu  tau(  36) = (   1.0000000   0.5773503  -0.0047222  )
        37           C   tau(  37) = (   0.5000000   0.2886751   0.1011475  )
        38           O   tau(  38) = (   0.5000000   0.2886751   0.2470410  )

   Crystallographic axes

     site n.     atom                  positions (cryst. coord.)
         1           Cu  tau(   1) = (  0.0000000  0.0000000 -0.2982848  )
         2           Cu  tau(   2) = (  0.3333333  0.0000000 -0.2982848  )
         3           Cu  tau(   3) = (  0.6666667  0.0000000 -0.2982848  )
         4           Cu  tau(   4) = (  0.0000000  0.3333333 -0.2982848  )
         5           Cu  tau(   5) = (  0.3333333  0.3333333 -0.2982848  )
         6           Cu  tau(   6) = (  0.6666667  0.3333333 -0.2982848  )
         7           Cu  tau(   7) = ( -0.0000000  0.6666667 -0.2982848  )
         8           Cu  tau(   8) = (  0.3333333  0.6666667 -0.2982848  )
         9           Cu  tau(   9) = (  0.6666667  0.6666667 -0.2982848  )
        10           Cu  tau(  10) = (  0.1111111  0.1111111 -0.1994283  )
        11           Cu  tau(  11) = (  0.4444444  0.1111111 -0.1994283  )
        12           Cu  tau(  12) = (  0.7777778  0.1111111 -0.1994283  )
        13           Cu  tau(  13) = (  0.1111111  0.4444444 -0.1994283  )
        14           Cu  tau(  14) = (  0.4444444  0.4444444 -0.1994283  )
        15           Cu  tau(  15) = (  0.7777778  0.4444444 -0.1994283  )
        16           Cu  tau(  16) = (  0.1111111  0.7777778 -0.1994283  )
        17           Cu  tau(  17) = (  0.4444444  0.7777778 -0.1994283  )
        18           Cu  tau(  18) = (  0.7777778  0.7777778 -0.1994283  )
        19           Cu  tau(  19) = ( -0.1111111  0.2222222 -0.1005717  )
        20           Cu  tau(  20) = (  0.2222222  0.2222222 -0.1005717  )
        21           Cu  tau(  21) = (  0.5555556  0.2222222 -0.1005717  )
        22           Cu  tau(  22) = ( -0.1111111  0.5555556 -0.1005717  )
        23           Cu  tau(  23) = (  0.2222222  0.5555556 -0.1005717  )
        24           Cu  tau(  24) = (  0.5555556  0.5555556 -0.1005717  )
        25           Cu  tau(  25) = ( -0.1111111  0.8888889 -0.1005717  )
        26           Cu  tau(  26) = (  0.2222222  0.8888889 -0.1005717  )
        27           Cu  tau(  27) = (  0.5555556  0.8888889 -0.1005717  )
        28           Cu  tau(  28) = (  0.0000000  0.0000000 -0.0017152  )
        29           Cu  tau(  29) = (  0.3333333  0.0000000 -0.0017152  )
[...]
     atom   17 type  1   force =    -0.04013195    0.02317019  221.17872522
     atom   18 type  1   force =     0.04013195    0.02317019  221.17872522
     atom   19 type  1   force =    -0.00000000   -0.05391136  367.65398159
     atom   20 type  1   force =    -0.15801596   -0.09123056  370.28535887
     atom   21 type  1   force =     0.15801596   -0.09123056  370.28535887
     atom   22 type  1   force =    -0.05316875    0.03069699  368.51862991
     atom   23 type  1   force =    -0.00000000    0.18246112  370.28535887
     atom   24 type  1   force =     0.05316875    0.03069699  368.51862991
     atom   25 type  1   force =     0.04668861    0.02695568  367.65398158
     atom   26 type  1   force =    -0.04668861    0.02695568  367.65398158
     atom   27 type  1   force =     0.00000000   -0.06139398  368.51862991
     atom   28 type  1   force =    -0.00000000    0.00000000  516.56422397
     atom   29 type  1   force =    -0.67059740   -0.90001918  515.20953211
     atom   30 type  1   force =     0.67059740   -0.90001918  515.20953211
     atom   31 type  1   force =    -1.11473818   -0.13074479  515.20953211
     atom   32 type  1   force =    -0.00000000    0.00000000  514.61525408
     atom   33 type  1   force =     1.11473818   -0.13074480  515.20953211
     atom   34 type  1   force =    -0.44414078    1.03076398  515.20953211
     atom   35 type  1   force =     0.44414078    1.03076398  515.20953211
     atom   36 type  1   force =     0.00000000   -0.00000000  517.33898131
     atom   37 type  2   force =    -0.00000000    0.00000000  208.05184232
     atom   38 type  3   force =    -0.00000000    0.00000000  336.65188793
     The local contribution  to forces
     atom    1 type  1   force =    -0.00000000   -0.00000000  -74.39255275
     atom    2 type  1   force =     0.03680016    0.01364678  -74.25198757
     atom    3 type  1   force =    -0.03680016    0.01364678  -74.25198757
     atom    4 type  1   force =     0.03021853    0.02504649  -74.25198757
     atom    5 type  1   force =    -0.00000001    0.00000001  -74.24031016
     atom    6 type  1   force =    -0.03021854    0.02504649  -74.25198757
     atom    7 type  1   force =    -0.00658162   -0.03869327  -74.25198757
     atom    8 type  1   force =     0.00658163   -0.03869327  -74.25198757
     atom    9 type  1   force =     0.00000000   -0.00000001  -74.22392266
     atom   10 type  1   force =     0.06951643    0.04013533 -221.28614587
     atom   11 type  1   force =    -0.00000001   -0.07999160 -221.32123911
     atom   12 type  1   force =    -0.06951645    0.04013533 -221.28614587
     atom   13 type  1   force =    -0.06927475    0.03999580 -221.32123911
     atom   14 type  1   force =     0.06927475    0.03999580 -221.32123911
     atom   15 type  1   force =     0.00000000    0.04527995 -221.16143867
     atom   16 type  1   force =    -0.00000001   -0.08027066 -221.28614587
     atom   17 type  1   force =     0.03921358   -0.02263997 -221.16143867
     atom   18 type  1   force =    -0.03921359   -0.02263997 -221.16143867
     atom   19 type  1   force =    -0.00000000    0.04952452 -367.68173224
     atom   20 type  1   force =     0.17190385    0.09924872 -370.29090160
     atom   21 type  1   force =    -0.17190384    0.09924872 -370.29090160
     atom   22 type  1   force =     0.04635860   -0.02676516 -368.55011135
     atom   23 type  1   force =    -0.00000001   -0.19849747 -370.29090160
     atom   24 type  1   force =    -0.04635861   -0.02676516 -368.55011135
     atom   25 type  1   force =    -0.04288950   -0.02476226 -367.68173224
     atom   26 type  1   force =     0.04288950   -0.02476226 -367.68173224
     atom   27 type  1   force =     0.00000000    0.05353031 -368.55011135
     atom   28 type  1   force =    -0.00000000    0.00000000 -516.66428290
     atom   29 type  1   force =     0.65697834    0.87882681 -515.33942902
     atom   30 type  1   force =    -0.65697833    0.87882681 -515.33942902
     atom   31 type  1   force =     1.08957550    0.12954653 -515.33942902
     atom   32 type  1   force =    -0.00000001    0.00000001 -514.65523521
     atom   33 type  1   force =    -1.08957552    0.12954653 -515.33942902
     atom   34 type  1   force =     0.43259717   -1.00837334 -515.33942902
     atom   35 type  1   force =    -0.43259717   -1.00837334 -515.33942902
     atom   36 type  1   force =     0.00000000   -0.00000001 -517.44308131
     atom   37 type  2   force =    -0.00000000    0.00000000 -208.84518961
     atom   38 type  3   force =    -0.00000000    0.00000000 -333.90877702
     The core correction contribution to forces
     atom    1 type  1   force =    -0.00000000    0.00000000    0.01672132
     atom    2 type  1   force =    -0.00011234    0.00014935    0.01693549
     atom    3 type  1   force =     0.00011234    0.00014935    0.01693549
     atom    4 type  1   force =     0.00007317   -0.00017197    0.01693549
     atom    5 type  1   force =    -0.00000000    0.00000000    0.01636876
     atom    6 type  1   force =    -0.00007317   -0.00017197    0.01693549
     atom    7 type  1   force =     0.00018551    0.00002262    0.01693549
     atom    8 type  1   force =    -0.00018551    0.00002262    0.01693549
     atom    9 type  1   force =     0.00000000   -0.00000000    0.01696652
     atom   10 type  1   force =     0.00038198    0.00022054   -0.00039009
     atom   11 type  1   force =    -0.00000000   -0.00039190   -0.00104516
     atom   12 type  1   force =    -0.00038198    0.00022054   -0.00039009
     atom   13 type  1   force =    -0.00033940    0.00019595   -0.00104516
     atom   14 type  1   force =     0.00033940    0.00019595   -0.00104516
     atom   15 type  1   force =     0.00000000    0.00009306    0.00012629
     atom   16 type  1   force =    -0.00000000   -0.00044107   -0.00039009
     atom   17 type  1   force =     0.00008059   -0.00004653    0.00012629
     atom   18 type  1   force =    -0.00008059   -0.00004653    0.00012629
     atom   19 type  1   force =    -0.00000000   -0.00017268    0.00049541
     atom   20 type  1   force =     0.00121735    0.00070283    0.00065608
     atom   21 type  1   force =    -0.00121734    0.00070283    0.00065608
     atom   22 type  1   force =     0.00027248   -0.00015732    0.00110607
     atom   23 type  1   force =    -0.00000000   -0.00140567    0.00065608
     atom   24 type  1   force =    -0.00027248   -0.00015732    0.00110607
     atom   25 type  1   force =     0.00014955    0.00008634    0.00049541
     atom   26 type  1   force =    -0.00014955    0.00008634    0.00049541
     atom   27 type  1   force =     0.00000000    0.00031464    0.00110607
     atom   28 type  1   force =     0.00000000   -0.00000000   -0.01722823
     atom   29 type  1   force =    -0.00033220   -0.00069995   -0.01715606
     atom   30 type  1   force =     0.00033220   -0.00069995   -0.01715606
     atom   31 type  1   force =    -0.00077228    0.00006229   -0.01715606
     atom   32 type  1   force =    -0.00000000    0.00000000    0.02372891
     atom   33 type  1   force =     0.00077227    0.00006229   -0.01715606
     atom   34 type  1   force =    -0.00044008    0.00063767   -0.01715606
     atom   35 type  1   force =     0.00044008    0.00063767   -0.01715606
     atom   36 type  1   force =     0.00000000   -0.00000000   -0.01766003
     atom   37 type  2   force =     0.00000000   -0.00000000   -0.00370701
     atom   38 type  3   force =     0.00000000   -0.00000000    0.01789193
     The Hubbard contrib.    to forces
     atom    1 type  1   force =     0.00000000    0.00000000    0.00000000
     atom    2 type  1   force =     0.00000000    0.00000000    0.00000000
     atom    3 type  1   force =     0.00000000    0.00000000    0.00000000
     atom    4 type  1   force =     0.00000000    0.00000000    0.00000000
     atom    5 type  1   force =     0.00000000    0.00000000    0.00000000
     atom    6 type  1   force =     0.00000000    0.00000000    0.00000000
     atom    7 type  1   force =     0.00000000    0.00000000    0.00000000
     atom    8 type  1   force =     0.00000000    0.00000000    0.00000000
     atom    9 type  1   force =     0.00000000    0.00000000    0.00000000
     atom   10 type  1   force =     0.00000000    0.00000000    0.00000000
     atom   11 type  1   force =     0.00000000    0.00000000    0.00000000
     atom   12 type  1   force =     0.00000000    0.00000000    0.00000000
     atom   13 type  1   force =     0.00000000    0.00000000    0.00000000
     atom   14 type  1   force =     0.00000000    0.00000000    0.00000000
     atom   15 type  1   force =     0.00000000    0.00000000    0.00000000
     atom   16 type  1   force =     0.00000000    0.00000000    0.00000000
     atom   17 type  1   force =     0.00000000    0.00000000    0.00000000
     atom   18 type  1   force =     0.00000000    0.00000000    0.00000000
     atom   19 type  1   force =     0.00000000    0.00000000    0.00000000
     atom   20 type  1   force =     0.00000000    0.00000000    0.00000000
     atom   21 type  1   force =     0.00000000    0.00000000    0.00000000
     atom   22 type  1   force =     0.00000000    0.00000000    0.00000000
     atom   23 type  1   force =     0.00000000    0.00000000    0.00000000
     atom   24 type  1   force =     0.00000000    0.00000000    0.00000000
     atom   25 type  1   force =     0.00000000    0.00000000    0.00000000
     atom   26 type  1   force =     0.00000000    0.00000000    0.00000000
     atom   27 type  1   force =     0.00000000    0.00000000    0.00000000
     atom   28 type  1   force =     0.00000000    0.00000000    0.00000000
     atom   29 type  1   force =     0.00000000    0.00000000    0.00000000
     atom   30 type  1   force =     0.00000000    0.00000000    0.00000000
     atom   31 type  1   force =     0.00000000    0.00000000    0.00000000
     atom   32 type  1   force =     0.00000000    0.00000000    0.00000000
     atom   33 type  1   force =     0.00000000    0.00000000    0.00000000
     atom   34 type  1   force =     0.00000000    0.00000000    0.00000000
     atom   35 type  1   force =     0.00000000    0.00000000    0.00000000
     atom   36 type  1   force =     0.00000000    0.00000000    0.00000000
     atom   37 type  2   force =     0.00000000    0.00000000    0.00000000
     atom   38 type  3   force =     0.00000000    0.00000000    0.00000000
     The SCF correction term to forces
     atom    1 type  1   force =     0.00000000    0.00000000    0.00000000
     atom    2 type  1   force =     0.00000000    0.00000000    0.00000000
     atom    3 type  1   force =     0.00000000    0.00000000    0.00000000
     atom    4 type  1   force =     0.00000000    0.00000000    0.00000000
     atom    5 type  1   force =     0.00000000    0.00000000    0.00000000
     atom    6 type  1   force =     0.00000000    0.00000000    0.00000000
     atom    7 type  1   force =     0.00000000    0.00000000    0.00000000
     atom    8 type  1   force =     0.00000000    0.00000000    0.00000000
     atom    9 type  1   force =     0.00000000    0.00000000    0.00000000
     atom   10 type  1   force =     0.00000004    0.00000002   -0.00000042
     atom   11 type  1   force =    -0.00000000    0.00000004   -0.00000049
     atom   12 type  1   force =    -0.00000004    0.00000002   -0.00000042
     atom   13 type  1   force =     0.00000004   -0.00000002   -0.00000049
     atom   14 type  1   force =    -0.00000004   -0.00000002   -0.00000049
     atom   15 type  1   force =     0.00000000    0.00000001   -0.00000024
     atom   16 type  1   force =     0.00000000   -0.00000004   -0.00000042
     atom   17 type  1   force =     0.00000001   -0.00000001   -0.00000024
     atom   18 type  1   force =    -0.00000001   -0.00000001   -0.00000024
     atom   19 type  1   force =     0.00000000   -0.00000002   -0.00000039
     atom   20 type  1   force =     0.00000001    0.00000001   -0.00000039
     atom   21 type  1   force =    -0.00000001    0.00000001   -0.00000039
     atom   22 type  1   force =    -0.00000007    0.00000004   -0.00000035
     atom   23 type  1   force =    -0.00000000   -0.00000001   -0.00000039
     atom   24 type  1   force =     0.00000007    0.00000004   -0.00000035
     atom   25 type  1   force =     0.00000002    0.00000001   -0.00000039
     atom   26 type  1   force =    -0.00000002    0.00000001   -0.00000039
     atom   27 type  1   force =     0.00000000   -0.00000009   -0.00000035
     atom   28 type  1   force =    -0.00000000    0.00000000   -0.00000024
     atom   29 type  1   force =     0.00000008    0.00000002   -0.00000020
     atom   30 type  1   force =    -0.00000008    0.00000002   -0.00000020
     atom   31 type  1   force =     0.00000005    0.00000006   -0.00000020
     atom   32 type  1   force =    -0.00000000    0.00000000   -0.00000015
     atom   33 type  1   force =    -0.00000005    0.00000006   -0.00000020
     atom   34 type  1   force =    -0.00000002   -0.00000007   -0.00000020
     atom   35 type  1   force =     0.00000002   -0.00000007   -0.00000020
     atom   36 type  1   force =    -0.00000000    0.00000000   -0.00000018
     atom   37 type  2   force =    -0.00000000    0.00000000    0.00000004
     atom   38 type  3   force =     0.00000000   -0.00000000   -0.00000020

     Total force =     0.000568     Total SCF correction =     0.000002
     Energy error            =      7.0E-07 Ry
     Gradient error          =      2.0E-04 Ry/Bohr

     bfgs converged in  41 scf cycles and  40 bfgs steps
     (criteria: energy <  7.3E-07 Ry, force <  3.9E-04 Ry/Bohr)

     End of BFGS Geometry Optimization

     Final energy             =   -7901.9082514207 Ry

     File tmp_1200/slab_1200.bfgs deleted, as requested
Begin final coordinates

ATOMIC_POSITIONS (angstrom)
Cu            0.0000000000        0.0000000000       -6.3606463468    0   0   0
Cu            2.5817912981        0.0000000000       -6.3606463468    0   0   0
Cu            5.1635825962        0.0000000000       -6.3606463468    0   0   0
Cu            1.2908956491        2.2358968514       -6.3606463468    0   0   0
Cu            3.8726869472        2.2358968514       -6.3606463468    0   0   0
Cu            6.4544782453        2.2358968514       -6.3606463468    0   0   0
Cu            2.5817912981        4.4717937029       -6.3606463468    0   0   0
Cu            5.1635825962        4.4717937029       -6.3606463468    0   0   0
Cu            7.7453738943        4.4717937029       -6.3606463468    0   0   0
Cu            1.2988258245        0.7498774394       -4.2717241213
Cu            3.8726869472        0.7456018029       -4.2733012316
Cu            6.4465480699        0.7498774394       -4.2717241213
Cu            2.5820535760        2.9810443757       -4.2733012316
Cu            5.1633203183        2.9810443757       -4.2733012316
Cu            7.7453738943        2.9821238687       -4.2729884861
Cu            3.8726869472        5.2079356755       -4.2717241213
Cu            6.4552819748        5.2166286199       -4.2729884861
Cu            9.0354658139        5.2166286199       -4.2729884861
Cu            0.0000000000        1.4866850743       -2.2009291954
Cu            2.5970113094        1.4993851786       -2.1588684453
Cu            5.1483625849        1.4993851786       -2.1588684453
Cu            1.2916508457        3.7260587395       -2.1869784741
Cu            3.8726869472        3.7089201971       -2.1588684453
Cu            6.4537230487        3.7260587395       -2.1869784741
Cu            2.5851799054        5.9643480171       -2.2009291954
Cu            5.1601939889        5.9643480171       -2.2009291954
Cu            7.7453738943        5.9632636297       -2.1869784741
Cu            0.0000000000        0.0000000000       -0.1118730814
Cu            2.5724246301       -0.0209674319       -0.1140544501
Cu            5.1729492642       -0.0209674319       -0.1140544501
Cu            1.2680539864        2.2382687949       -0.1140544501
Cu            3.8726869472        2.2358968514        0.0122481653
Cu            6.4773199080        2.2382687949       -0.1140544501
Cu            2.5683163034        4.4903891913       -0.1140544501
Cu            5.1770575909        4.4903891913       -0.1140544501
Cu            7.7453738943        4.4717937029       -0.0987699102
C             3.8726869472        2.2358968514        1.8900639323
O             3.8726869472        2.2358968514        3.0404690970
End final coordinates

     Writing all to output data dir tmp_1200/slab_1200.save/

     General routines

     Parallel routines

     PAW routines

   This run was terminated on:  21:10:34   4Oct2024

   JOB DONE.