     Program PWSCF v.7.2 starts on  4Oct2024 at  9:47:59

     Reading input from slab_650.pwi
Warning: card &CELL ignored
Warning: card / ignored

     Current dimensions of program PWSCF are:
     Max number of different atomic species (ntypx) = 10
     Max number of k-points (npk) =  40000
     Max angular momentum in pseudopotentials (lmaxx) =  4
     file Cu.pbe-dn-kjpaw_psl.1.0.0.UPF: wavefunction(s)  4S 3D renormalized
     file C.pbe-n-kjpaw_psl.1.0.0.UPF: wavefunction(s)  2S 2P renormalized
     file O.pbe-n-kjpaw_psl.1.0.0.UPF: wavefunction(s)  2S 2P renormalized

     IMPORTANT: XC functional enforced from input :
     Exchange-correlation= BEEF-VDW
                           (   1   4  43  14   2   0   0)
     Any further DFT definition will be discarded
     Please, verify this is what you really want

     Message from routine setup:
     using ibrav=0 with symmetry is DISCOURAGED, use correct ibrav instead

     R & G space division:  proc/nbgrp/npool/nimage =      64
     Subspace diagonalization in iterative solution of the eigenvalue problem:
     one sub-group per band group will be used

     Using Slab Decomposition

     Title:
     slab_650

     bravais-lattice index     =            0
     lattice parameter (alat)  =      14.5487  a.u.
     unit-cell volume          =    7373.4901 (a.u.)^3
     number of atoms/cell      =           38
     number of atomic types    =            3
     number of electrons       =       406.00
     number of Kohn-Sham states=          244
     kinetic-energy cutoff     =      47.7741  Ry
     charge density cutoff     =     477.7412  Ry
     scf convergence threshold =      7.3E-12
     mixing beta               =       0.3333
     number of iterations used =           12  plain     mixing
     energy convergence thresh.=      7.3E-07
     force convergence thresh. =      3.9E-04
     Exchange-correlation= BEEF-VDW
                           (   1   4  43  14   2   0   0)
     nstep                     =           50

     Effective Screening Medium Method
     Boundary Conditions: Vacuum-Slab-Metal
     total charge in unit cell        =   0.0000
     grid points for fit at edges     =        4

     celldm(1)=  14.548694  celldm(2)=   0.000000  celldm(3)=   0.000000
     celldm(4)=   0.000000  celldm(5)=   0.000000  celldm(6)=   0.000000

     crystal axes: (cart. coord. in units of alat)
               a(1) = (   1.000000   0.000000   0.000000 )
               a(2) = (   0.500000   0.866025   0.000000 )
               a(3) = (   0.000000   0.000000   2.764843 )

     reciprocal axes: (cart. coord. in units 2 pi/alat)
               b(1) = (  1.000000 -0.577350  0.000000 )
               b(2) = (  0.000000  1.154701  0.000000 )
               b(3) = (  0.000000  0.000000  0.361684 )

     PseudoPot. # 1 for Cu read from file:
     /home/k0227/k022716/QE/pseudo/Cu.pbe-dn-kjpaw_psl.1.0.0.UPF
     MD5 check sum: 67c40f9e1593dc2d139023e70404cc2a
     Pseudo is Projector augmented-wave + core cor, Zval = 11.0
     Generated using "atomic" code by A. Dal Corso  v.6.1 svn rev. 13369
     Shape of augmentation charge: PSQ
     Using radial grid of 1199 points,  6 beta functions with:
                l(1) =   0
                l(2) =   0
                l(3) =   1
                l(4) =   1
                l(5) =   2
                l(6) =   2
     Q(r) pseudized with 0 coefficients

     PseudoPot. # 2 for C  read from file:
     /home/k0227/k022716/QE/pseudo/C.pbe-n-kjpaw_psl.1.0.0.UPF
     MD5 check sum: 92a742b3ac0ce1af44b5aa3f9352ca21
     Pseudo is Projector augmented-wave + core cor, Zval =  4.0
     Generated using "atomic" code by A. Dal Corso  v.6.1 svn rev. 13369
     Shape of augmentation charge: PSQ
     Using radial grid of 1073 points,  4 beta functions with:
                l(1) =   0
                l(2) =   0
                l(3) =   1
                l(4) =   1
     Q(r) pseudized with 0 coefficients

     PseudoPot. # 3 for O  read from file:
     /home/k0227/k022716/QE/pseudo/O.pbe-n-kjpaw_psl.1.0.0.UPF
     MD5 check sum: c61d840054b6bba219e553541e327118
     Pseudo is Projector augmented-wave + core cor, Zval =  6.0
     Generated using "atomic" code by A. Dal Corso  v.6.1 svn rev. 13369
     Shape of augmentation charge: PSQ
     Using radial grid of 1095 points,  4 beta functions with:
                l(1) =   0
                l(2) =   0
                l(3) =   1
                l(4) =   1
     Q(r) pseudized with 0 coefficients

     atomic species   valence    mass     pseudopotential
        Cu            11.00    63.54600     Cu( 1.00)
        C              4.00    12.01100     C ( 1.00)
        O              6.00    15.99900     O ( 1.00)

      6 Sym. Ops. (no inversion) found

                                    s                        frac. trans.

      isym =  1     identity

 cryst.   s( 1) = (     1          0          0      )
                  (     0          1          0      )
                  (     0          0          1      )

 cart.    s( 1) = (  1.0000000  0.0000000  0.0000000 )
                  (  0.0000000  1.0000000  0.0000000 )
                  (  0.0000000  0.0000000  1.0000000 )

      isym =  2     120 deg rotation - cryst. axis [0,0,1]

[...]

      isym =  3     120 deg rotation - cryst. axis [0,0,-1]

[...]

      isym =  4     inv. 180 deg rotation - cart. axis [1,0,0]

[...]

      isym =  5     inv. 180 deg rotation - cryst. axis [0,1,0]

[...]

      isym =  6     inv. 180 deg rotation - cryst. axis [1,1,0]

 cryst.   s( 6) = (     1         -1          0      )
                  (     0         -1          0      )
                  (     0          0          1      )

 cart.    s( 6) = (  0.5000000 -0.8660254  0.0000000 )
                  ( -0.8660254 -0.5000000  0.0000000 )
                  (  0.0000000  0.0000000  1.0000000 )

   Cartesian axes

     site n.     atom                  positions (alat units)
         1           Cu  tau(   1) = (   0.0000000   0.0000000  -0.8229747  )
         2           Cu  tau(   2) = (   0.3333333   0.0000000  -0.8229747  )
         3           Cu  tau(   3) = (   0.6666667   0.0000000  -0.8229747  )
         4           Cu  tau(   4) = (   0.1666667   0.2886751  -0.8229747  )
         5           Cu  tau(   5) = (   0.5000000   0.2886751  -0.8229747  )
         6           Cu  tau(   6) = (   0.8333333   0.2886751  -0.8229747  )
         7           Cu  tau(   7) = (   0.3333333   0.5773503  -0.8229747  )
         8           Cu  tau(   8) = (   0.6666667   0.5773503  -0.8229747  )
         9           Cu  tau(   9) = (   1.0000000   0.5773503  -0.8229747  )
        10           Cu  tau(  10) = (   0.1666667   0.0962250  -0.5508092  )
        11           Cu  tau(  11) = (   0.5000000   0.0962250  -0.5508092  )
        12           Cu  tau(  12) = (   0.8333333   0.0962250  -0.5508092  )
        13           Cu  tau(  13) = (   0.3333333   0.3849002  -0.5508092  )
        14           Cu  tau(  14) = (   0.6666667   0.3849002  -0.5508092  )
        15           Cu  tau(  15) = (   1.0000000   0.3849002  -0.5508092  )
        16           Cu  tau(  16) = (   0.5000000   0.6735753  -0.5508092  )
        17           Cu  tau(  17) = (   0.8333333   0.6735753  -0.5508092  )
        18           Cu  tau(  18) = (   1.1666667   0.6735753  -0.5508092  )
        19           Cu  tau(  19) = (   0.0000000   0.1924501  -0.2786436  )
        20           Cu  tau(  20) = (   0.3333333   0.1924501  -0.2786436  )
        21           Cu  tau(  21) = (   0.6666667   0.1924501  -0.2786436  )
        22           Cu  tau(  22) = (   0.1666667   0.4811252  -0.2786436  )
        23           Cu  tau(  23) = (   0.5000000   0.4811252  -0.2786436  )
        24           Cu  tau(  24) = (   0.8333333   0.4811252  -0.2786436  )
        25           Cu  tau(  25) = (   0.3333333   0.7698004  -0.2786436  )
        26           Cu  tau(  26) = (   0.6666667   0.7698004  -0.2786436  )
        27           Cu  tau(  27) = (   1.0000000   0.7698004  -0.2786436  )
        28           Cu  tau(  28) = (   0.0000000   0.0000000  -0.0064781  )
        29           Cu  tau(  29) = (   0.3333333   0.0000000  -0.0064781  )
        30           Cu  tau(  30) = (   0.6666667   0.0000000  -0.0064781  )
        31           Cu  tau(  31) = (   0.1666667   0.2886751  -0.0064781  )
        32           Cu  tau(  32) = (   0.5000000   0.2886751  -0.0064781  )
        33           Cu  tau(  33) = (   0.8333333   0.2886751  -0.0064781  )
        34           Cu  tau(  34) = (   0.3333333   0.5773503  -0.0064781  )
        35           Cu  tau(  35) = (   0.6666667   0.5773503  -0.0064781  )
        36           Cu  tau(  36) = (   1.0000000   0.5773503  -0.0064781  )
        37           C   tau(  37) = (   0.5000000   0.2886751   0.1000315  )
        38           O   tau(  38) = (   0.5000000   0.2886751   0.2468069  )

   Crystallographic axes

     site n.     atom                  positions (cryst. coord.)
         1           Cu  tau(   1) = (  0.0000000  0.0000000 -0.2976570  )
         2           Cu  tau(   2) = (  0.3333333  0.0000000 -0.2976570  )
         3           Cu  tau(   3) = (  0.6666667  0.0000000 -0.2976570  )
         4           Cu  tau(   4) = ( -0.0000000  0.3333333 -0.2976570  )
         5           Cu  tau(   5) = (  0.3333333  0.3333333 -0.2976570  )
         6           Cu  tau(   6) = (  0.6666667  0.3333333 -0.2976570  )
         7           Cu  tau(   7) = (  0.0000000  0.6666667 -0.2976570  )
         8           Cu  tau(   8) = (  0.3333333  0.6666667 -0.2976570  )
         9           Cu  tau(   9) = (  0.6666667  0.6666667 -0.2976570  )
        10           Cu  tau(  10) = (  0.1111111  0.1111111 -0.1992190  )
        11           Cu  tau(  11) = (  0.4444444  0.1111111 -0.1992190  )
        12           Cu  tau(  12) = (  0.7777778  0.1111111 -0.1992190  )
        13           Cu  tau(  13) = (  0.1111111  0.4444444 -0.1992190  )
        14           Cu  tau(  14) = (  0.4444444  0.4444444 -0.1992190  )
        15           Cu  tau(  15) = (  0.7777778  0.4444444 -0.1992190  )
        16           Cu  tau(  16) = (  0.1111111  0.7777778 -0.1992190  )
        17           Cu  tau(  17) = (  0.4444444  0.7777778 -0.1992190  )
        18           Cu  tau(  18) = (  0.7777778  0.7777778 -0.1992190  )
        19           Cu  tau(  19) = ( -0.1111111  0.2222222 -0.1007810  )
        20           Cu  tau(  20) = (  0.2222222  0.2222222 -0.1007810  )
        21           Cu  tau(  21) = (  0.5555556  0.2222222 -0.1007810  )
        22           Cu  tau(  22) = ( -0.1111111  0.5555556 -0.1007810  )
        23           Cu  tau(  23) = (  0.2222222  0.5555556 -0.1007810  )
        24           Cu  tau(  24) = (  0.5555556  0.5555556 -0.1007810  )
        25           Cu  tau(  25) = ( -0.1111111  0.8888889 -0.1007810  )
        26           Cu  tau(  26) = (  0.2222222  0.8888889 -0.1007810  )
        27           Cu  tau(  27) = (  0.5555556  0.8888889 -0.1007810  )
        28           Cu  tau(  28) = (  0.0000000  0.0000000 -0.0023430  )
        29           Cu  tau(  29) = (  0.3333333  0.0000000 -0.0023430  )
[...]
     atom   17 type  1   force =    -0.03802562    0.02195410  223.82488625
     atom   18 type  1   force =     0.03802562    0.02195410  223.82488625
     atom   19 type  1   force =     0.00000000   -0.05780060  372.07713763
     atom   20 type  1   force =    -0.11809341   -0.06818126  374.83167137
     atom   21 type  1   force =     0.11809341   -0.06818126  374.83167137
     atom   22 type  1   force =    -0.04440300    0.02563608  372.95685094
     atom   23 type  1   force =     0.00000000    0.13636252  374.83167137
     atom   24 type  1   force =     0.04440299    0.02563608  372.95685094
     atom   25 type  1   force =     0.05005679    0.02890030  372.07713763
     atom   26 type  1   force =    -0.05005679    0.02890030  372.07713763
     atom   27 type  1   force =    -0.00000000   -0.05127216  372.95685094
     atom   28 type  1   force =     0.00000000   -0.00000000  522.70332455
     atom   29 type  1   force =    -0.67199247   -0.93721867  521.47035206
     atom   30 type  1   force =     0.67199247   -0.93721867  521.47035206
     atom   31 type  1   force =    -1.14765141   -0.11335322  521.47035206
     atom   32 type  1   force =    -0.00000000   -0.00000000  521.32953481
     atom   33 type  1   force =     1.14765141   -0.11335322  521.47035206
     atom   34 type  1   force =    -0.47565894    1.05057189  521.47035206
     atom   35 type  1   force =     0.47565894    1.05057189  521.47035206
     atom   36 type  1   force =    -0.00000000    0.00000000  523.51779746
     atom   37 type  2   force =    -0.00000000   -0.00000000  210.69272964
     atom   38 type  3   force =    -0.00000000   -0.00000000  340.62716780
     The local contribution  to forces
     atom    1 type  1   force =    -0.00000000    0.00000000  -75.25840345
     atom    2 type  1   force =     0.03497568    0.00396450  -75.12511170
     atom    3 type  1   force =    -0.03497569    0.00396450  -75.12511170
     atom    4 type  1   force =     0.02092120    0.02830758  -75.12511170
     atom    5 type  1   force =    -0.00000000   -0.00000001  -75.11492216
     atom    6 type  1   force =    -0.02092120    0.02830758  -75.12511170
     atom    7 type  1   force =    -0.01405449   -0.03227208  -75.12511170
     atom    8 type  1   force =     0.01405448   -0.03227208  -75.12511170
     atom    9 type  1   force =    -0.00000001    0.00000001  -75.08852904
     atom   10 type  1   force =     0.04388038    0.02533435 -223.99254590
     atom   11 type  1   force =    -0.00000000   -0.09969206 -224.02869544
     atom   12 type  1   force =    -0.04388038    0.02533435 -223.99254590
     atom   13 type  1   force =    -0.08633586    0.04984603 -224.02869544
     atom   14 type  1   force =     0.08633585    0.04984603 -224.02869544
     atom   15 type  1   force =    -0.00000001    0.04349043 -223.80996715
     atom   16 type  1   force =    -0.00000000   -0.05066869 -223.99254590
     atom   17 type  1   force =     0.03766381   -0.02174521 -223.80996715
     atom   18 type  1   force =    -0.03766383   -0.02174521 -223.80996715
     atom   19 type  1   force =    -0.00000000    0.05403818 -372.10343223
     atom   20 type  1   force =     0.13156111    0.07595685 -374.83768197
     atom   21 type  1   force =    -0.13156111    0.07595685 -374.83768197
     atom   22 type  1   force =     0.03748618   -0.02164265 -372.98729793
     atom   23 type  1   force =    -0.00000000   -0.15191368 -374.83768197
     atom   24 type  1   force =    -0.03748618   -0.02164265 -372.98729793
     atom   25 type  1   force =    -0.04679843   -0.02701909 -372.10343223
     atom   26 type  1   force =     0.04679842   -0.02701909 -372.10343223
     atom   27 type  1   force =    -0.00000001    0.04328530 -372.98729793
     atom   28 type  1   force =    -0.00000000    0.00000000 -522.79521101
     atom   29 type  1   force =     0.65901069    0.91751775 -521.59303908
     atom   30 type  1   force =    -0.65901069    0.91751775 -521.59303908
     atom   31 type  1   force =     1.12409902    0.11196111 -521.59303908
     atom   32 type  1   force =    -0.00000000   -0.00000001 -521.36883473
     atom   33 type  1   force =    -1.12409903    0.11196111 -521.59303908
     atom   34 type  1   force =     0.46508834   -1.02947887 -521.59303908
     atom   35 type  1   force =    -0.46508834   -1.02947887 -521.59303908
     atom   36 type  1   force =    -0.00000001    0.00000001 -523.61468555
     atom   37 type  2   force =    -0.00000000   -0.00000000 -211.48786516
     atom   38 type  3   force =    -0.00000000   -0.00000000 -337.88198102
     The core correction contribution to forces
     atom    1 type  1   force =     0.00000000    0.00000000    0.01646900
     atom    2 type  1   force =    -0.00018659    0.00000630    0.01659759
     atom    3 type  1   force =     0.00018659    0.00000630    0.01659759
     atom    4 type  1   force =    -0.00008784   -0.00016474    0.01659759
     atom    5 type  1   force =    -0.00000000   -0.00000000    0.01600133
     atom    6 type  1   force =     0.00008784   -0.00016474    0.01659759
     atom    7 type  1   force =     0.00009875    0.00015844    0.01659759
     atom    8 type  1   force =    -0.00009875    0.00015844    0.01659759
     atom    9 type  1   force =    -0.00000000    0.00000000    0.01671525
     atom   10 type  1   force =     0.00035593    0.00020550   -0.00033126
     atom   11 type  1   force =    -0.00000000   -0.00040295   -0.00106819
     atom   12 type  1   force =    -0.00035593    0.00020550   -0.00033126
     atom   13 type  1   force =    -0.00034896    0.00020147   -0.00106819
     atom   14 type  1   force =     0.00034896    0.00020147   -0.00106819
     atom   15 type  1   force =    -0.00000000    0.00013526    0.00013749
     atom   16 type  1   force =    -0.00000000   -0.00041100   -0.00033126
     atom   17 type  1   force =     0.00011713   -0.00006763    0.00013749
     atom   18 type  1   force =    -0.00011714   -0.00006763    0.00013749
     atom   19 type  1   force =    -0.00000000   -0.00013123    0.00039348
     atom   20 type  1   force =     0.00125617    0.00072525    0.00068557
     atom   21 type  1   force =    -0.00125618    0.00072525    0.00068557
     atom   22 type  1   force =     0.00027227   -0.00015719    0.00104779
     atom   23 type  1   force =    -0.00000000   -0.00145051    0.00068557
     atom   24 type  1   force =    -0.00027227   -0.00015719    0.00104779
     atom   25 type  1   force =     0.00011365    0.00006561    0.00039348
     atom   26 type  1   force =    -0.00011365    0.00006561    0.00039348
     atom   27 type  1   force =    -0.00000000    0.00031439    0.00104779
     atom   28 type  1   force =    -0.00000000   -0.00000000   -0.01685162
     atom   29 type  1   force =    -0.00032250   -0.00061108   -0.01677471
     atom   30 type  1   force =     0.00032250   -0.00061108   -0.01677471
     atom   31 type  1   force =    -0.00069046    0.00002625   -0.01677471
     atom   32 type  1   force =    -0.00000000   -0.00000000    0.02401382
     atom   33 type  1   force =     0.00069046    0.00002625   -0.01677471
     atom   34 type  1   force =    -0.00036796    0.00058483   -0.01677471
     atom   35 type  1   force =     0.00036796    0.00058483   -0.01677471
     atom   36 type  1   force =    -0.00000000    0.00000000   -0.01735572
     atom   37 type  2   force =     0.00000000    0.00000000   -0.00465372
     atom   38 type  3   force =     0.00000000    0.00000000    0.01822303
     The Hubbard contrib.    to forces
     atom    1 type  1   force =     0.00000000    0.00000000    0.00000000
     atom    2 type  1   force =     0.00000000    0.00000000    0.00000000
     atom    3 type  1   force =     0.00000000    0.00000000    0.00000000
     atom    4 type  1   force =     0.00000000    0.00000000    0.00000000
     atom    5 type  1   force =     0.00000000    0.00000000    0.00000000
     atom    6 type  1   force =     0.00000000    0.00000000    0.00000000
     atom    7 type  1   force =     0.00000000    0.00000000    0.00000000
     atom    8 type  1   force =     0.00000000    0.00000000    0.00000000
     atom    9 type  1   force =     0.00000000    0.00000000    0.00000000
     atom   10 type  1   force =     0.00000000    0.00000000    0.00000000
     atom   11 type  1   force =     0.00000000    0.00000000    0.00000000
     atom   12 type  1   force =     0.00000000    0.00000000    0.00000000
     atom   13 type  1   force =     0.00000000    0.00000000    0.00000000
     atom   14 type  1   force =     0.00000000    0.00000000    0.00000000
     atom   15 type  1   force =     0.00000000    0.00000000    0.00000000
     atom   16 type  1   force =     0.00000000    0.00000000    0.00000000
     atom   17 type  1   force =     0.00000000    0.00000000    0.00000000
     atom   18 type  1   force =     0.00000000    0.00000000    0.00000000
     atom   19 type  1   force =     0.00000000    0.00000000    0.00000000
     atom   20 type  1   force =     0.00000000    0.00000000    0.00000000
     atom   21 type  1   force =     0.00000000    0.00000000    0.00000000
     atom   22 type  1   force =     0.00000000    0.00000000    0.00000000
     atom   23 type  1   force =     0.00000000    0.00000000    0.00000000
     atom   24 type  1   force =     0.00000000    0.00000000    0.00000000
     atom   25 type  1   force =     0.00000000    0.00000000    0.00000000
     atom   26 type  1   force =     0.00000000    0.00000000    0.00000000
     atom   27 type  1   force =     0.00000000    0.00000000    0.00000000
     atom   28 type  1   force =     0.00000000    0.00000000    0.00000000
     atom   29 type  1   force =     0.00000000    0.00000000    0.00000000
     atom   30 type  1   force =     0.00000000    0.00000000    0.00000000
     atom   31 type  1   force =     0.00000000    0.00000000    0.00000000
     atom   32 type  1   force =     0.00000000    0.00000000    0.00000000
     atom   33 type  1   force =     0.00000000    0.00000000    0.00000000
     atom   34 type  1   force =     0.00000000    0.00000000    0.00000000
     atom   35 type  1   force =     0.00000000    0.00000000    0.00000000
     atom   36 type  1   force =     0.00000000    0.00000000    0.00000000
     atom   37 type  2   force =     0.00000000    0.00000000    0.00000000
     atom   38 type  3   force =     0.00000000    0.00000000    0.00000000
     The SCF correction term to forces
     atom    1 type  1   force =     0.00000000    0.00000000    0.00000000
     atom    2 type  1   force =     0.00000000    0.00000000    0.00000000
     atom    3 type  1   force =     0.00000000    0.00000000    0.00000000
     atom    4 type  1   force =     0.00000000    0.00000000    0.00000000
     atom    5 type  1   force =     0.00000000    0.00000000    0.00000000
     atom    6 type  1   force =     0.00000000    0.00000000    0.00000000
     atom    7 type  1   force =     0.00000000    0.00000000    0.00000000
     atom    8 type  1   force =     0.00000000    0.00000000    0.00000000
     atom    9 type  1   force =     0.00000000    0.00000000    0.00000000
     atom   10 type  1   force =    -0.00000010   -0.00000006   -0.00000039
     atom   11 type  1   force =     0.00000000   -0.00000009   -0.00000035
     atom   12 type  1   force =     0.00000010   -0.00000006   -0.00000039
     atom   13 type  1   force =    -0.00000008    0.00000005   -0.00000035
     atom   14 type  1   force =     0.00000008    0.00000005   -0.00000035
     atom   15 type  1   force =    -0.00000000   -0.00000014   -0.00000040
     atom   16 type  1   force =     0.00000000    0.00000011   -0.00000039
     atom   17 type  1   force =    -0.00000012    0.00000007   -0.00000040
     atom   18 type  1   force =     0.00000012    0.00000007   -0.00000040
     atom   19 type  1   force =    -0.00000000    0.00000011   -0.00000045
     atom   20 type  1   force =     0.00000015    0.00000009   -0.00000044
     atom   21 type  1   force =    -0.00000015    0.00000009   -0.00000044
     atom   22 type  1   force =     0.00000016   -0.00000009   -0.00000051
     atom   23 type  1   force =    -0.00000000   -0.00000017   -0.00000044
     atom   24 type  1   force =    -0.00000016   -0.00000009   -0.00000051
     atom   25 type  1   force =    -0.00000009   -0.00000005   -0.00000045
     atom   26 type  1   force =     0.00000009   -0.00000005   -0.00000045
     atom   27 type  1   force =     0.00000000    0.00000018   -0.00000051
     atom   28 type  1   force =    -0.00000000    0.00000000   -0.00000003
     atom   29 type  1   force =    -0.00000012   -0.00000014   -0.00000029
     atom   30 type  1   force =     0.00000012   -0.00000014   -0.00000029
     atom   31 type  1   force =    -0.00000018   -0.00000003   -0.00000029
     atom   32 type  1   force =    -0.00000000    0.00000000   -0.00000020
     atom   33 type  1   force =     0.00000018   -0.00000003   -0.00000029
     atom   34 type  1   force =    -0.00000006    0.00000017   -0.00000029
     atom   35 type  1   force =     0.00000006    0.00000017   -0.00000029
     atom   36 type  1   force =    -0.00000000    0.00000000   -0.00000000
     atom   37 type  2   force =     0.00000000    0.00000000   -0.00000002
     atom   38 type  3   force =     0.00000000    0.00000000    0.00000005

     Total force =     0.000160     Total SCF correction =     0.000002
     Energy error            =      2.6E-07 Ry
     Gradient error          =      5.5E-05 Ry/Bohr

     bfgs converged in  44 scf cycles and  43 bfgs steps
     (criteria: energy <  7.3E-07 Ry, force <  3.9E-04 Ry/Bohr)

     End of BFGS Geometry Optimization

     Final energy             =   -7901.8357315587 Ry

     File tmp_650/slab_650.bfgs deleted, as requested
Begin final coordinates

ATOMIC_POSITIONS (angstrom)
Cu            0.0000000000        0.0000000000       -6.3359483521    0   0   0
Cu            2.5662791226        0.0000000000       -6.3359483521    0   0   0
Cu            5.1325582452        0.0000000000       -6.3359483521    0   0   0
Cu            1.2831395613        2.2224629134       -6.3359483521    0   0   0
Cu            3.8494186839        2.2224629134       -6.3359483521    0   0   0
Cu            6.4156978065        2.2224629134       -6.3359483521    0   0   0
Cu            2.5662791226        4.4449258267       -6.3359483521    0   0   0
Cu            5.1325582452        4.4449258267       -6.3359483521    0   0   0
Cu            7.6988373678        4.4449258267       -6.3359483521    0   0   0
Cu            1.2903704784        0.7449957431       -4.2364124388
Cu            3.8494186839        0.7411596705       -4.2381977466
Cu            6.4084668894        0.7449957431       -4.2364124388
Cu            2.5665724448        2.9631145348       -4.2381977466
Cu            5.1322649230        2.9631145348       -4.2381977466
Cu            7.6988373678        2.9641883669       -4.2386051260
Cu            3.8494186839        5.1773972539       -4.2364124388
Cu            6.4164811112        5.1852945566       -4.2386051260
Cu            8.9811936244        5.1852945566       -4.2386051260
Cu            0.0000000000        1.4787895228       -2.1579662132
Cu            2.5808911620        1.4900782071       -2.1143075381
Cu            5.1179462058        1.4900782071       -2.1143075381
Cu            1.2840223316        3.7035951879       -2.1437511287
Cu            3.8494186839        3.6872323258       -2.1143075381
Cu            6.4148150362        3.7035951879       -2.1437511287
Cu            2.5687493902        5.9279939787       -2.1579662132
Cu            5.1300879776        5.9279939787       -2.1579662132
Cu            7.6988373678        5.9275871043       -2.1437511287
Cu           -0.0000000000        0.0000000000       -0.0601917062
Cu            2.5571894450       -0.0195740844       -0.0601394249
Cu            5.1416479228       -0.0195740844       -0.0601394249
Cu            1.2616430682        2.2243780639       -0.0601394249
Cu            3.8494186839        2.2224629134        0.0725026319
Cu            6.4371942996        2.2243780639       -0.0601394249
Cu            2.5538723071        4.4625847606       -0.0601394249
Cu            5.1449650607        4.4625847606       -0.0601394249
Cu            7.6988373678        4.4449258267       -0.0468101360
C             3.8494186839        2.2224629134        1.9519552322
O             3.8494186839        2.2224629134        3.1022285387
End final coordinates

     Writing all to output data dir tmp_650/slab_650.save/

     General routines

     Parallel routines

     PAW routines

   This run was terminated on:  15: 2:44   4Oct2024

   JOB DONE.