     Program PWSCF v.7.2 starts on 16Oct2024 at  3:18:26

     Reading input from Cu-vib.pwi
Warning: card &CELL ignored
Warning: card / ignored

     Current dimensions of program PWSCF are:
     Max number of different atomic species (ntypx) = 10
     Max number of k-points (npk) =  40000
     Max angular momentum in pseudopotentials (lmaxx) =  4
     file Cu.pbe-dn-kjpaw_psl.1.0.0.UPF: wavefunction(s)  4S 3D renormalized
     file C.pbe-n-kjpaw_psl.1.0.0.UPF: wavefunction(s)  2S 2P renormalized
     file O.pbe-n-kjpaw_psl.1.0.0.UPF: wavefunction(s)  2S 2P renormalized

     IMPORTANT: XC functional enforced from input :
     Exchange-correlation= BEEF-VDW
                           (   1   4  43  14   2   0   0)
     Any further DFT definition will be discarded
     Please, verify this is what you really want

     K-points division:     npool     =       2
     R & G space division:  proc/nbgrp/npool/nimage =      96
     Subspace diagonalization in iterative solution of the eigenvalue problem:
     one sub-group per band group will be used

     Using Slab Decomposition

     Title:
     Cu-vib

     bravais-lattice index     =            0
     lattice parameter (alat)  =      14.6292  a.u.
     unit-cell volume          =    7467.4528 (a.u.)^3
     number of atoms/cell      =           38
     number of atomic types    =            3
     number of electrons       =       406.00
     number of Kohn-Sham states=          244
     kinetic-energy cutoff     =      62.4738  Ry
     charge density cutoff     =     624.7385  Ry
     scf convergence threshold =      7.3E-12
     mixing beta               =       0.3333
     number of iterations used =           12  plain     mixing
     Exchange-correlation= BEEF-VDW
                           (   1   4  43  14   2   0   0)

     Effective Screening Medium Method
     Boundary Conditions: Vacuum-Slab-Metal
     total charge in unit cell        =   0.0000
     grid points for fit at edges     =        4

     celldm(1)=  14.629161  celldm(2)=   0.000000  celldm(3)=   0.000000
     celldm(4)=   0.000000  celldm(5)=   0.000000  celldm(6)=   0.000000

     crystal axes: (cart. coord. in units of alat)
               a(1) = (   1.000000   0.000000   0.000000 )
               a(2) = (   0.500000   0.866025   0.000000 )
               a(3) = (   0.000000   0.000000   2.754126 )

     reciprocal axes: (cart. coord. in units 2 pi/alat)
               b(1) = (  1.000000 -0.577351  0.000000 )
               b(2) = (  0.000000  1.154701  0.000000 )
               b(3) = (  0.000000  0.000000  0.363092 )

     PseudoPot. # 1 for Cu read from file:
     /home/k0227/k022716/QE/pseudo/Cu.pbe-dn-kjpaw_psl.1.0.0.UPF
     MD5 check sum: 67c40f9e1593dc2d139023e70404cc2a
     Pseudo is Projector augmented-wave + core cor, Zval = 11.0
     Generated using "atomic" code by A. Dal Corso  v.6.1 svn rev. 13369
     Shape of augmentation charge: PSQ
     Using radial grid of 1199 points,  6 beta functions with:
                l(1) =   0
                l(2) =   0
                l(3) =   1
                l(4) =   1
                l(5) =   2
                l(6) =   2
     Q(r) pseudized with 0 coefficients

     PseudoPot. # 2 for C  read from file:
     /home/k0227/k022716/QE/pseudo/C.pbe-n-kjpaw_psl.1.0.0.UPF
     MD5 check sum: 92a742b3ac0ce1af44b5aa3f9352ca21
     Pseudo is Projector augmented-wave + core cor, Zval =  4.0
     Generated using "atomic" code by A. Dal Corso  v.6.1 svn rev. 13369
     Shape of augmentation charge: PSQ
     Using radial grid of 1073 points,  4 beta functions with:
                l(1) =   0
                l(2) =   0
                l(3) =   1
                l(4) =   1
     Q(r) pseudized with 0 coefficients

     PseudoPot. # 3 for O  read from file:
     /home/k0227/k022716/QE/pseudo/O.pbe-n-kjpaw_psl.1.0.0.UPF
     MD5 check sum: c61d840054b6bba219e553541e327118
     Pseudo is Projector augmented-wave + core cor, Zval =  6.0
     Generated using "atomic" code by A. Dal Corso  v.6.1 svn rev. 13369
     Shape of augmentation charge: PSQ
     Using radial grid of 1095 points,  4 beta functions with:
                l(1) =   0
                l(2) =   0
                l(3) =   1
                l(4) =   1
     Q(r) pseudized with 0 coefficients

     atomic species   valence    mass     pseudopotential
        Cu            11.00    63.54600     Cu( 1.00)
        C              4.00    12.01100     C ( 1.00)
        O              6.00    15.99900     O ( 1.00)

     No symmetry found

                                    s                        frac. trans.

      isym =  1     identity

 cryst.   s( 1) = (     1          0          0      )
                  (     0          1          0      )
                  (     0          0          1      )

 cart.    s( 1) = (  1.0000000  0.0000000  0.0000000 )
                  (  0.0000000  1.0000000  0.0000000 )
                  (  0.0000000  0.0000000  1.0000000 )

   Cartesian axes

     site n.     atom                  positions (alat units)
         1           Cu  tau(   1) = (   0.0000000   0.0000000  -0.8213672  )
         2           Cu  tau(   2) = (   0.3333333   0.0000000  -0.8213672  )
         3           Cu  tau(   3) = (   0.6666667   0.0000000  -0.8213672  )
         4           Cu  tau(   4) = (   0.1666667   0.2886751  -0.8213672  )
         5           Cu  tau(   5) = (   0.5000000   0.2886751  -0.8213672  )
         6           Cu  tau(   6) = (   0.8333334   0.2886751  -0.8213672  )
         7           Cu  tau(   7) = (   0.3333333   0.5773503  -0.8213672  )
         8           Cu  tau(   8) = (   0.6666667   0.5773503  -0.8213672  )
         9           Cu  tau(   9) = (   1.0000000   0.5773503  -0.8213672  )
        10           Cu  tau(  10) = (   0.1676727   0.0968059  -0.5514396  )
        11           Cu  tau(  11) = (   0.5000000   0.0962354  -0.5516367  )
        12           Cu  tau(  12) = (   0.8323273   0.0968059  -0.5514396  )
        13           Cu  tau(  13) = (   0.3333423   0.3848950  -0.5516367  )
        14           Cu  tau(  14) = (   0.6666577   0.3848950  -0.5516367  )
        15           Cu  tau(  15) = (   1.0000000   0.3850131  -0.5516280  )
        16           Cu  tau(  16) = (   0.5000000   0.6724137  -0.5514396  )
        17           Cu  tau(  17) = (   0.8334311   0.6735189  -0.5516280  )
        18           Cu  tau(  18) = (   1.1665689   0.6735189  -0.5516280  )
        19           Cu  tau(  19) = (  -0.0000000   0.1920201  -0.2839447  )
        20           Cu  tau(  20) = (   0.3352745   0.1935708  -0.2785144  )
        21           Cu  tau(  21) = (   0.6647256   0.1935708  -0.2785144  )
        22           Cu  tau(  22) = (   0.1667977   0.4810496  -0.2820819  )
        23           Cu  tau(  23) = (   0.5000000   0.4788838  -0.2785144  )
        24           Cu  tau(  24) = (   0.8332023   0.4810496  -0.2820820  )
        25           Cu  tau(  25) = (   0.3337057   0.7700154  -0.2839447  )
        26           Cu  tau(  26) = (   0.6662943   0.7700154  -0.2839447  )
        27           Cu  tau(  27) = (   1.0000000   0.7699517  -0.2820820  )
        28           Cu  tau(  28) = (  -0.0000000   0.0000000  -0.0141647  )
        29           Cu  tau(  29) = (   0.3320845  -0.0026669  -0.0142096  )
        30           Cu  tau(  30) = (   0.6679155  -0.0026669  -0.0142096  )
        31           Cu  tau(  31) = (   0.1637326   0.2889271  -0.0142096  )
        32           Cu  tau(  32) = (   0.5000000   0.2886751   0.0020474  )
        33           Cu  tau(  33) = (   0.8362674   0.2889271  -0.0142096  )
        34           Cu  tau(  34) = (   0.3316481   0.5797653  -0.0142096  )
        35           Cu  tau(  35) = (   0.6683519   0.5797653  -0.0142096  )
        36           Cu  tau(  36) = (   1.0000000   0.5773503  -0.0124621  )
        37           C   tau(  37) = (   0.5000000   0.2886751   0.2472415  )
        38           O   tau(  38) = (   0.5000000   0.2886751   0.3932598  )

   Crystallographic axes

     site n.     atom                  positions (cryst. coord.)
         1           Cu  tau(   1) = (  0.0000000  0.0000000 -0.2982315  )
         2           Cu  tau(   2) = (  0.3333333  0.0000000 -0.2982315  )
         3           Cu  tau(   3) = (  0.6666667  0.0000000 -0.2982315  )
         4           Cu  tau(   4) = ( -0.0000001  0.3333335 -0.2982315  )
         5           Cu  tau(   5) = (  0.3333333  0.3333335 -0.2982315  )
         6           Cu  tau(   6) = (  0.6666666  0.3333335 -0.2982315  )
         7           Cu  tau(   7) = ( -0.0000002  0.6666670 -0.2982315  )
         8           Cu  tau(   8) = (  0.3333332  0.6666670 -0.2982315  )
         9           Cu  tau(   9) = (  0.6666665  0.6666670 -0.2982315  )
        10           Cu  tau(  10) = (  0.1117818  0.1117819 -0.2002231  )
        11           Cu  tau(  11) = (  0.4444385  0.1111231 -0.2002946  )
        12           Cu  tau(  12) = (  0.7764364  0.1117819 -0.2002231  )
        13           Cu  tau(  13) = (  0.1111230  0.4444387 -0.2002946  )
        14           Cu  tau(  14) = (  0.4444384  0.4444387 -0.2002946  )
        15           Cu  tau(  15) = (  0.7777125  0.4445750 -0.2002915  )
        16           Cu  tau(  16) = (  0.1117816  0.7764368 -0.2002231  )
        17           Cu  tau(  17) = (  0.4445746  0.7777130 -0.2002915  )
        18           Cu  tau(  18) = (  0.7777124  0.7777130 -0.2002915  )
        19           Cu  tau(  19) = ( -0.1108629  0.2217258 -0.1030979  )
        20           Cu  tau(  20) = (  0.2235163  0.2235164 -0.1011262  )
        21           Cu  tau(  21) = (  0.5529674  0.2235164 -0.1011262  )
        22           Cu  tau(  22) = ( -0.1109366  0.5554685 -0.1024216  )
        23           Cu  tau(  23) = (  0.2235162  0.5529677 -0.1011262  )
        24           Cu  tau(  24) = (  0.5554681  0.5554685 -0.1024216  )
        25           Cu  tau(  25) = ( -0.1108631  0.8891376 -0.1030979  )
        26           Cu  tau(  26) = (  0.2217255  0.8891376 -0.1030979  )
        27           Cu  tau(  27) = (  0.5554680  0.8890640 -0.1024216  )
        28           Cu  tau(  28) = ( -0.0000000  0.0000000 -0.0051431  )
        29           Cu  tau(  29) = (  0.3336243 -0.0030795 -0.0051594  )
        30           Cu  tau(  30) = (  0.6694553 -0.0030795 -0.0051594  )
        31           Cu  tau(  31) = ( -0.0030796  0.3336244 -0.0051594  )
        32           Cu  tau(  32) = (  0.3333333  0.3333335  0.0007434  )
        33           Cu  tau(  33) = (  0.6694552  0.3336244 -0.0051594  )
        34           Cu  tau(  34) = ( -0.0030796  0.6694556 -0.0051594  )
        35           Cu  tau(  35) = (  0.3336241  0.6694556 -0.0051594  )
        36           Cu  tau(  36) = (  0.6666665  0.6666670 -0.0045249  )
        37           C   tau(  37) = (  0.3333333  0.3333335  0.0897713  )
        38           O   tau(  38) = (  0.3333333  0.3333335  0.1427893  )

     number of k points=    64  Marzari-Vanderbilt smearing, width (Ry)=  0.0073
                       cart. coord. in units 2pi/alat
        k(    1) = (   0.0000000   0.0000000   0.0000000), wk =   0.0312500
[...]
     atom   15 type  1   force =     0.00000001    0.00085477   -0.01703077
     atom   16 type  1   force =     0.00000003    0.00577794   -0.02391906
     atom   17 type  1   force =     0.00074022   -0.00042779   -0.01703066
     atom   18 type  1   force =    -0.00074023   -0.00042781   -0.01703067
     atom   19 type  1   force =     0.00000009    0.00445544    0.02705149
     atom   20 type  1   force =    -0.01459778   -0.00842766    0.00560685
     atom   21 type  1   force =     0.01459772   -0.00842766    0.00560686
     atom   22 type  1   force =     0.00658585   -0.00380224    0.03010914
     atom   23 type  1   force =    -0.00000006    0.01685626    0.00560688
     atom   24 type  1   force =    -0.00658582   -0.00380217    0.03010917
     atom   25 type  1   force =    -0.00385815   -0.00222810    0.02705153
     atom   26 type  1   force =     0.00385819   -0.00222804    0.02705153
     atom   27 type  1   force =    -0.00000006    0.00760411    0.03010910
     atom   28 type  1   force =     0.00000004    0.00000063    0.11539005
     atom   29 type  1   force =     0.01347453    0.02090286    0.14558133
     atom   30 type  1   force =    -0.01347454    0.02090289    0.14558133
     atom   31 type  1   force =     0.02483921    0.00121802    0.14558158
     atom   32 type  1   force =    -0.00000002   -0.00000013    0.03057275
     atom   33 type  1   force =    -0.02483918    0.00121806    0.14558160
     atom   34 type  1   force =     0.01136464   -0.02212094    0.14558120
     atom   35 type  1   force =    -0.01136460   -0.02212090    0.14558122
     atom   36 type  1   force =    -0.00000005   -0.00000051    0.12033973
     atom   37 type  2   force =     0.00000001    0.00000000    0.75785555
     atom   38 type  3   force =    -0.00000007    0.00000011   -2.77600260
     The ionic contribution  to forces
     atom    1 type  1   force =     0.00000363    0.00005265   74.57897019
     atom    2 type  1   force =    -0.03534119   -0.00357830   74.43257043
     atom    3 type  1   force =     0.03533811   -0.00357618   74.43256998
     atom    4 type  1   force =    -0.02081318   -0.02878487   74.43259499
     atom    5 type  1   force =     0.00000030    0.00000732   74.43719867
     atom    6 type  1   force =     0.02081307   -0.02878115   74.43259624
     atom    7 type  1   force =     0.01452827    0.03236292   74.43259109
     atom    8 type  1   force =    -0.01452483    0.03236468   74.43259281
     atom    9 type  1   force =    -0.00000381   -0.00005630   74.40653415
     atom   10 type  1   force =    -0.06047801   -0.03485373  221.53977106
     atom   11 type  1   force =    -0.00000085    0.08777679  221.58601104
     atom   12 type  1   force =     0.06047884   -0.03485014  221.53977121
     atom   13 type  1   force =     0.07596188   -0.04385740  221.58603195
     atom   14 type  1   force =    -0.07595898   -0.04385481  221.58603104
     atom   15 type  1   force =    -0.00000311   -0.03999412  221.39900289
     atom   16 type  1   force =     0.00000385    0.06977022  221.53980764
     atom   17 type  1   force =    -0.03463736    0.01993145  221.39901913
     atom   18 type  1   force =     0.03463294    0.01993228  221.39901933
     atom   19 type  1   force =     0.00000353   -0.05889278  368.01590322
     atom   20 type  1   force =    -0.14762303   -0.08516798  370.65858426
     atom   21 type  1   force =     0.14762027   -0.08516487  370.65858313
     atom   22 type  1   force =    -0.05309280    0.03063474  368.91251975
     atom   23 type  1   force =     0.00000130    0.17044277  370.65857548
     atom   24 type  1   force =     0.05309177    0.03063848  368.91251868
     atom   25 type  1   force =     0.05105981    0.02942820  368.01590226
     atom   26 type  1   force =    -0.05105601    0.02942919  368.01590091
     atom   27 type  1   force =    -0.00000457   -0.06135596  368.91252463
     atom   28 type  1   force =     0.00000430    0.00004101  516.99599540
     atom   29 type  1   force =    -0.65302294   -0.89468926  515.75635343
     atom   30 type  1   force =     0.65301981   -0.89468786  515.75635464
     atom   31 type  1   force =    -1.10136899   -0.11815915  515.75633237
     atom   32 type  1   force =    -0.00000040    0.00001165  515.28519906
     atom   33 type  1   force =     1.10136920   -0.11815486  515.75633235
     atom   34 type  1   force =    -0.44834424    1.01284333  515.75632845
     atom   35 type  1   force =     0.44834737    1.01284509  515.75632741
     atom   36 type  1   force =    -0.00000404   -0.00005408  517.78692826
     atom   37 type  2   force =    -0.00000015    0.00000084  207.85808029
     atom   38 type  3   force =     0.00000022    0.00000017  337.34354052
     The local contribution  to forces
     atom    1 type  1   force =    -0.00000371   -0.00005285  -74.46448853
     atom    2 type  1   force =     0.03578607    0.01066443  -74.32547924
     atom    3 type  1   force =    -0.03578293    0.01066241  -74.32547882
     atom    4 type  1   force =     0.02717253    0.02562709  -74.32550341
     atom    5 type  1   force =    -0.00000023   -0.00000725  -74.31890778
     atom    6 type  1   force =    -0.02717243    0.02562335  -74.32550459
     atom    7 type  1   force =    -0.00861379   -0.03629121  -74.32549997
     atom    8 type  1   force =     0.00861033   -0.03629305  -74.32550164
     atom    9 type  1   force =     0.00000380    0.00005644  -74.29660339
     atom   10 type  1   force =     0.06507217    0.03750629 -221.51548267
     atom   11 type  1   force =     0.00000093   -0.08866932 -221.55324042
     atom   12 type  1   force =    -0.06507306    0.03750274 -221.51548281
     atom   13 type  1   force =    -0.07673491    0.04430369 -221.55326131
     atom   14 type  1   force =     0.07673210    0.04430104 -221.55326036
     atom   15 type  1   force =     0.00000303    0.03907401 -221.38209150
     atom   16 type  1   force =    -0.00000385   -0.07507513 -221.51551927
     atom   17 type  1   force =     0.03384056   -0.01947150 -221.38210774
     atom   18 type  1   force =    -0.03383619   -0.01947224 -221.38210792
     atom   19 type  1   force =    -0.00000364    0.05455555 -368.04348322
     atom   20 type  1   force =     0.16099135    0.09288624 -370.66472452
     atom   21 type  1   force =    -0.16098850    0.09288314 -370.66472347
     atom   22 type  1   force =     0.04620237   -0.02665667 -368.94376093
     atom   23 type  1   force =    -0.00000118   -0.18587945 -370.66471580
     atom   24 type  1   force =    -0.04620139   -0.02666055 -368.94375987
     atom   25 type  1   force =    -0.04730369   -0.02725943 -368.04348232
     atom   26 type  1   force =     0.04729983   -0.02726050 -368.04348096
     atom   27 type  1   force =     0.00000461    0.05339962 -368.94376578
     atom   28 type  1   force =    -0.00000432   -0.00004120 -517.09413916
     atom   29 type  1   force =     0.63994261    0.87454058 -515.88484041
     atom   30 type  1   force =    -0.63993952    0.87453915 -515.88484162
     atom   31 type  1   force =     1.07737960    0.11690566 -515.88481980
     atom   32 type  1   force =     0.00000044   -0.00001148 -515.33269563
     atom   33 type  1   force =    -1.07737988    0.11690131 -515.88481979
     atom   34 type  1   force =     0.43743526   -0.99144108 -515.88481543
     atom   35 type  1   force =    -0.43743839   -0.99144292 -515.88481444
     atom   36 type  1   force =     0.00000405    0.00005415 -517.88955515
     atom   37 type  2   force =     0.00000015   -0.00000085 -208.70252502
     atom   38 type  3   force =    -0.00000016   -0.00000024 -334.50060652
     The core correction contribution to forces
     atom    1 type  1   force =    -0.00000000   -0.00000007    0.01670715
     atom    2 type  1   force =    -0.00012804    0.00012464    0.01690057
     atom    3 type  1   force =     0.00012804    0.00012464    0.01690058
     atom    4 type  1   force =     0.00004398   -0.00017324    0.01690055
     atom    5 type  1   force =     0.00000000   -0.00000001    0.01631324
     atom    6 type  1   force =    -0.00004398   -0.00017324    0.01690055
     atom    7 type  1   force =     0.00017202    0.00004858    0.01690055
     atom    8 type  1   force =    -0.00017203    0.00004857    0.01690054
     atom    9 type  1   force =     0.00000001    0.00000005    0.01694514
     atom   10 type  1   force =     0.00037899    0.00021874   -0.00038464
     atom   11 type  1   force =    -0.00000000   -0.00040147   -0.00104819
     atom   12 type  1   force =    -0.00037899    0.00021874   -0.00038464
     atom   13 type  1   force =    -0.00034763    0.00020070   -0.00104821
     atom   14 type  1   force =     0.00034762    0.00020069   -0.00104821
     atom   15 type  1   force =     0.00000001    0.00009297    0.00011540
     atom   16 type  1   force =    -0.00000000   -0.00043755   -0.00038469
     atom   17 type  1   force =     0.00008052   -0.00004641    0.00011538
     atom   18 type  1   force =    -0.00008052   -0.00004641    0.00011538
     atom   19 type  1   force =    -0.00000001   -0.00016150    0.00046930
     atom   20 type  1   force =     0.00120928    0.00069812    0.00064570
     atom   21 type  1   force =    -0.00120927    0.00069811    0.00064570
     atom   22 type  1   force =     0.00027032   -0.00015607    0.00110262
     atom   23 type  1   force =     0.00000000   -0.00139635    0.00064571
     atom   24 type  1   force =    -0.00027033   -0.00015608    0.00110262
     atom   25 type  1   force =     0.00013981    0.00008079    0.00046931
     atom   26 type  1   force =    -0.00013981    0.00008079    0.00046931
     atom   27 type  1   force =     0.00000001    0.00031222    0.00110262
     atom   28 type  1   force =    -0.00000001   -0.00000006   -0.01718203
     atom   29 type  1   force =    -0.00036893   -0.00072261   -0.01716462
     atom   30 type  1   force =     0.00036892   -0.00072261   -0.01716462
     atom   31 type  1   force =    -0.00081020    0.00004178   -0.01716460
     atom   32 type  1   force =    -0.00000000    0.00000001    0.02190249
     atom   33 type  1   force =     0.00081020    0.00004177   -0.01716460
     atom   34 type  1   force =    -0.00044128    0.00068083   -0.01716459
     atom   35 type  1   force =     0.00044128    0.00068083   -0.01716460
     atom   36 type  1   force =     0.00000000    0.00000006   -0.01764158
     atom   37 type  2   force =     0.00000001    0.00000005   -0.00209647
     atom   38 type  3   force =     0.00000000   -0.00000000    0.01700353
     The Hubbard contrib.    to forces
     atom    1 type  1   force =     0.00000000    0.00000000    0.00000000
     atom    2 type  1   force =     0.00000000    0.00000000    0.00000000
     atom    3 type  1   force =     0.00000000    0.00000000    0.00000000
     atom    4 type  1   force =     0.00000000    0.00000000    0.00000000
     atom    5 type  1   force =     0.00000000    0.00000000    0.00000000
     atom    6 type  1   force =     0.00000000    0.00000000    0.00000000
     atom    7 type  1   force =     0.00000000    0.00000000    0.00000000
     atom    8 type  1   force =     0.00000000    0.00000000    0.00000000
     atom    9 type  1   force =     0.00000000    0.00000000    0.00000000
     atom   10 type  1   force =     0.00000000    0.00000000    0.00000000
     atom   11 type  1   force =     0.00000000    0.00000000    0.00000000
     atom   12 type  1   force =     0.00000000    0.00000000    0.00000000
     atom   13 type  1   force =     0.00000000    0.00000000    0.00000000
     atom   14 type  1   force =     0.00000000    0.00000000    0.00000000
     atom   15 type  1   force =     0.00000000    0.00000000    0.00000000
     atom   16 type  1   force =     0.00000000    0.00000000    0.00000000
     atom   17 type  1   force =     0.00000000    0.00000000    0.00000000
     atom   18 type  1   force =     0.00000000    0.00000000    0.00000000
     atom   19 type  1   force =     0.00000000    0.00000000    0.00000000
     atom   20 type  1   force =     0.00000000    0.00000000    0.00000000
     atom   21 type  1   force =     0.00000000    0.00000000    0.00000000
     atom   22 type  1   force =     0.00000000    0.00000000    0.00000000
     atom   23 type  1   force =     0.00000000    0.00000000    0.00000000
     atom   24 type  1   force =     0.00000000    0.00000000    0.00000000
     atom   25 type  1   force =     0.00000000    0.00000000    0.00000000
     atom   26 type  1   force =     0.00000000    0.00000000    0.00000000
     atom   27 type  1   force =     0.00000000    0.00000000    0.00000000
     atom   28 type  1   force =     0.00000000    0.00000000    0.00000000
     atom   29 type  1   force =     0.00000000    0.00000000    0.00000000
     atom   30 type  1   force =     0.00000000    0.00000000    0.00000000
     atom   31 type  1   force =     0.00000000    0.00000000    0.00000000
     atom   32 type  1   force =     0.00000000    0.00000000    0.00000000
     atom   33 type  1   force =     0.00000000    0.00000000    0.00000000
     atom   34 type  1   force =     0.00000000    0.00000000    0.00000000
     atom   35 type  1   force =     0.00000000    0.00000000    0.00000000
     atom   36 type  1   force =     0.00000000    0.00000000    0.00000000
     atom   37 type  2   force =     0.00000000    0.00000000    0.00000000
     atom   38 type  3   force =     0.00000000    0.00000000    0.00000000
     The SCF correction term to forces
     atom    1 type  1   force =     0.00000000    0.00000000    0.00000000
     atom    2 type  1   force =     0.00000000    0.00000000    0.00000000
     atom    3 type  1   force =     0.00000000    0.00000000    0.00000000
     atom    4 type  1   force =     0.00000000    0.00000000    0.00000000
     atom    5 type  1   force =     0.00000000    0.00000000    0.00000000
     atom    6 type  1   force =     0.00000000    0.00000000    0.00000000
     atom    7 type  1   force =     0.00000000    0.00000000    0.00000000
     atom    8 type  1   force =     0.00000000    0.00000000    0.00000000
     atom    9 type  1   force =     0.00000000    0.00000000    0.00000000
     atom   10 type  1   force =    -0.00000049   -0.00000044    0.00000067
     atom   11 type  1   force =    -0.00000009   -0.00000064    0.00000046
     atom   12 type  1   force =     0.00000055   -0.00000046    0.00000066
     atom   13 type  1   force =    -0.00000050    0.00000027    0.00000050
     atom   14 type  1   force =     0.00000036    0.00000039    0.00000047
     atom   15 type  1   force =     0.00000008    0.00000012    0.00000034
     atom   16 type  1   force =    -0.00000000    0.00000066    0.00000073
     atom   17 type  1   force =     0.00000002    0.00000005    0.00000039
     atom   18 type  1   force =    -0.00000002   -0.00000012    0.00000039
     atom   19 type  1   force =     0.00000011   -0.00000043   -0.00000244
     atom   20 type  1   force =    -0.00000021   -0.00000017   -0.00000153
     atom   21 type  1   force =     0.00000014   -0.00000015   -0.00000145
     atom   22 type  1   force =     0.00000001    0.00000009   -0.00000238
     atom   23 type  1   force =    -0.00000008    0.00000030   -0.00000149
     atom   24 type  1   force =     0.00000002    0.00000019   -0.00000234
     atom   25 type  1   force =     0.00000031    0.00000008   -0.00000246
     atom   26 type  1   force =    -0.00000028    0.00000013   -0.00000247
     atom   27 type  1   force =    -0.00000000   -0.00000006   -0.00000237
     atom   28 type  1   force =     0.00000004   -0.00000005    0.00000112
     atom   29 type  1   force =     0.00000010    0.00000080    0.00000127
     atom   30 type  1   force =    -0.00000007    0.00000076    0.00000129
     atom   31 type  1   force =     0.00000083   -0.00000035    0.00000128
     atom   32 type  1   force =    -0.00000001   -0.00000002    0.00000072
     atom   33 type  1   force =    -0.00000076   -0.00000028    0.00000133
     atom   34 type  1   force =     0.00000067   -0.00000049    0.00000123
     atom   35 type  1   force =    -0.00000073   -0.00000042    0.00000127
     atom   36 type  1   force =     0.00000004    0.00000008    0.00000122
     atom   37 type  2   force =    -0.00000000    0.00000001   -0.00000047
     atom   38 type  3   force =     0.00000001   -0.00000000    0.00000073

     Total force =     0.122210     Total SCF correction =     0.000008

     Writing all to output data dir tmp/Cu-vib.save/

     General routines

     Parallel routines

     PAW routines

   This run was terminated on:   3:56:43  16Oct2024

   JOB DONE.