     Program PWSCF v.7.2 starts on 13Jun2024 at 20:12:33

     Reading input from Cu-vib.pwi
Warning: card &CELL ignored
Warning: card / ignored

     Current dimensions of program PWSCF are:
     Max number of different atomic species (ntypx) = 10
     Max number of k-points (npk) =  40000
     Max angular momentum in pseudopotentials (lmaxx) =  4
     file Cu.pbe-dn-kjpaw_psl.1.0.0.UPF: wavefunction(s)  4S 3D renormalized
     file C.pbe-n-kjpaw_psl.1.0.0.UPF: wavefunction(s)  2S 2P renormalized
     file O.pbe-n-kjpaw_psl.1.0.0.UPF: wavefunction(s)  2S 2P renormalized

     IMPORTANT: XC functional enforced from input :
     Exchange-correlation= BEEF-VDW
                           (   1   4  43  14   2   0   0)
     Any further DFT definition will be discarded
     Please, verify this is what you really want

     K-points division:     npool     =       2
     R & G space division:  proc/nbgrp/npool/nimage =      64
     Subspace diagonalization in iterative solution of the eigenvalue problem:
     one sub-group per band group will be used

     Using Slab Decomposition

     Title:
     Cu-vib

     bravais-lattice index     =            0
     lattice parameter (alat)  =      14.6292  a.u.
     unit-cell volume          =    7467.4559 (a.u.)^3
     number of atoms/cell      =           38
     number of atomic types    =            3
     number of electrons       =       406.00
     number of Kohn-Sham states=          244
     kinetic-energy cutoff     =      62.4738  Ry
     charge density cutoff     =     624.7385  Ry
     scf convergence threshold =      7.3E-12
     mixing beta               =       0.3333
     number of iterations used =           12  plain     mixing
     Exchange-correlation= BEEF-VDW
                           (   1   4  43  14   2   0   0)

     Effective Screening Medium Method
     Boundary Conditions: Vacuum-Slab-Metal
     total charge in unit cell        =   0.0000
     grid points for fit at edges     =        4

     celldm(1)=  14.629163  celldm(2)=   0.000000  celldm(3)=   0.000000
     celldm(4)=   0.000000  celldm(5)=   0.000000  celldm(6)=   0.000000

     crystal axes: (cart. coord. in units of alat)
               a(1) = (   1.000000   0.000000   0.000000 )
               a(2) = (   0.500000   0.866025   0.000000 )
               a(3) = (   0.000000   0.000000   2.754126 )

     reciprocal axes: (cart. coord. in units 2 pi/alat)
               b(1) = (  1.000000 -0.577351  0.000000 )
               b(2) = (  0.000000  1.154701  0.000000 )
               b(3) = (  0.000000  0.000000  0.363092 )

     PseudoPot. # 1 for Cu read from file:
     /home/k0227/k022716/QE/pseudo/Cu.pbe-dn-kjpaw_psl.1.0.0.UPF
     MD5 check sum: 67c40f9e1593dc2d139023e70404cc2a
     Pseudo is Projector augmented-wave + core cor, Zval = 11.0
     Generated using "atomic" code by A. Dal Corso  v.6.1 svn rev. 13369
     Shape of augmentation charge: PSQ
     Using radial grid of 1199 points,  6 beta functions with:
                l(1) =   0
                l(2) =   0
                l(3) =   1
                l(4) =   1
                l(5) =   2
                l(6) =   2
     Q(r) pseudized with 0 coefficients

     PseudoPot. # 2 for C  read from file:
     /home/k0227/k022716/QE/pseudo/C.pbe-n-kjpaw_psl.1.0.0.UPF
     MD5 check sum: 92a742b3ac0ce1af44b5aa3f9352ca21
     Pseudo is Projector augmented-wave + core cor, Zval =  4.0
     Generated using "atomic" code by A. Dal Corso  v.6.1 svn rev. 13369
     Shape of augmentation charge: PSQ
     Using radial grid of 1073 points,  4 beta functions with:
                l(1) =   0
                l(2) =   0
                l(3) =   1
                l(4) =   1
     Q(r) pseudized with 0 coefficients

     PseudoPot. # 3 for O  read from file:
     /home/k0227/k022716/QE/pseudo/O.pbe-n-kjpaw_psl.1.0.0.UPF
     MD5 check sum: c61d840054b6bba219e553541e327118
     Pseudo is Projector augmented-wave + core cor, Zval =  6.0
     Generated using "atomic" code by A. Dal Corso  v.6.1 svn rev. 13369
     Shape of augmentation charge: PSQ
     Using radial grid of 1095 points,  4 beta functions with:
                l(1) =   0
                l(2) =   0
                l(3) =   1
                l(4) =   1
     Q(r) pseudized with 0 coefficients

     atomic species   valence    mass     pseudopotential
        Cu            11.00    63.54600     Cu( 1.00)
        C              4.00    12.01100     C ( 1.00)
        O              6.00    15.99900     O ( 1.00)

     No symmetry found

                                    s                        frac. trans.

      isym =  1     identity

 cryst.   s( 1) = (     1          0          0      )
                  (     0          1          0      )
                  (     0          0          1      )

 cart.    s( 1) = (  1.0000000  0.0000000  0.0000000 )
                  (  0.0000000  1.0000000  0.0000000 )
                  (  0.0000000  0.0000000  1.0000000 )

   Cartesian axes

     site n.     atom                  positions (alat units)
         1           Cu  tau(   1) = (   0.0000000   0.0000000  -0.8213671  )
         2           Cu  tau(   2) = (   0.3333333   0.0000000  -0.8213671  )
         3           Cu  tau(   3) = (   0.6666666   0.0000000  -0.8213671  )
         4           Cu  tau(   4) = (   0.1666667   0.2886751  -0.8213671  )
         5           Cu  tau(   5) = (   0.5000000   0.2886751  -0.8213671  )
         6           Cu  tau(   6) = (   0.8333333   0.2886751  -0.8213671  )
         7           Cu  tau(   7) = (   0.3333333   0.5773503  -0.8213671  )
         8           Cu  tau(   8) = (   0.6666666   0.5773503  -0.8213671  )
         9           Cu  tau(   9) = (   1.0000000   0.5773503  -0.8213671  )
        10           Cu  tau(  10) = (   0.1676726   0.0968058  -0.5514407  )
        11           Cu  tau(  11) = (   0.5000000   0.0962354  -0.5516369  )
        12           Cu  tau(  12) = (   0.8323274   0.0968058  -0.5514407  )
        13           Cu  tau(  13) = (   0.3333423   0.3848950  -0.5516369  )
        14           Cu  tau(  14) = (   0.6666577   0.3848950  -0.5516369  )
        15           Cu  tau(  15) = (   1.0000000   0.3850123  -0.5516296  )
        16           Cu  tau(  16) = (   0.5000000   0.6724138  -0.5514407  )
        17           Cu  tau(  17) = (   0.8334305   0.6735192  -0.5516296  )
        18           Cu  tau(  18) = (   1.1665695   0.6735192  -0.5516296  )
        19           Cu  tau(  19) = (   0.0000000   0.1920199  -0.2839468  )
        20           Cu  tau(  20) = (   0.3352761   0.1935717  -0.2785153  )
        21           Cu  tau(  21) = (   0.6647239   0.1935717  -0.2785153  )
        22           Cu  tau(  22) = (   0.1667971   0.4810499  -0.2820853  )
        23           Cu  tau(  23) = (   0.5000000   0.4788819  -0.2785153  )
        24           Cu  tau(  24) = (   0.8332029   0.4810499  -0.2820853  )
        25           Cu  tau(  25) = (   0.3337059   0.7700154  -0.2839468  )
        26           Cu  tau(  26) = (   0.6662941   0.7700154  -0.2839468  )
        27           Cu  tau(  27) = (   1.0000000   0.7699510  -0.2820853  )
        28           Cu  tau(  28) = (   0.0000000   0.0000000  -0.0128738  )
        29           Cu  tau(  29) = (   0.3320846  -0.0026680  -0.0142138  )
        30           Cu  tau(  30) = (   0.6679153  -0.0026680  -0.0142138  )
        31           Cu  tau(  31) = (   0.1637317   0.2889277  -0.0142138  )
        32           Cu  tau(  32) = (   0.5000000   0.2886751   0.0020453  )
        33           Cu  tau(  33) = (   0.8362682   0.2889277  -0.0142138  )
        34           Cu  tau(  34) = (   0.3316471   0.5797657  -0.0142138  )
        35           Cu  tau(  35) = (   0.6683529   0.5797657  -0.0142138  )
        36           Cu  tau(  36) = (   1.0000000   0.5773503  -0.0124640  )
        37           C   tau(  37) = (   0.5000000   0.2886751   0.2446598  )
        38           O   tau(  38) = (   0.5000000   0.2886751   0.3932622  )

   Crystallographic axes

     site n.     atom                  positions (cryst. coord.)
         1           Cu  tau(   1) = (  0.0000000  0.0000000 -0.2982315  )
         2           Cu  tau(   2) = (  0.3333333  0.0000000 -0.2982315  )
         3           Cu  tau(   3) = (  0.6666666  0.0000000 -0.2982315  )
         4           Cu  tau(   4) = ( -0.0000001  0.3333335 -0.2982315  )
         5           Cu  tau(   5) = (  0.3333332  0.3333335 -0.2982315  )
         6           Cu  tau(   6) = (  0.6666666  0.3333335 -0.2982315  )
         7           Cu  tau(   7) = ( -0.0000002  0.6666670 -0.2982315  )
         8           Cu  tau(   8) = (  0.3333332  0.6666670 -0.2982315  )
         9           Cu  tau(   9) = (  0.6666665  0.6666670 -0.2982315  )
        10           Cu  tau(  10) = (  0.1117817  0.1117818 -0.2002235  )
        11           Cu  tau(  11) = (  0.4444384  0.1111231 -0.2002947  )
        12           Cu  tau(  12) = (  0.7764365  0.1117818 -0.2002235  )
        13           Cu  tau(  13) = (  0.1111230  0.4444386 -0.2002947  )
        14           Cu  tau(  14) = (  0.4444383  0.4444386 -0.2002947  )
        15           Cu  tau(  15) = (  0.7777129  0.4445742 -0.2002921  )
        16           Cu  tau(  16) = (  0.1117815  0.7764369 -0.2002235  )
        17           Cu  tau(  17) = (  0.4445738  0.7777134 -0.2002921  )
        18           Cu  tau(  18) = (  0.7777128  0.7777134 -0.2002921  )
        19           Cu  tau(  19) = ( -0.1108628  0.2217256 -0.1030987  )
        20           Cu  tau(  20) = (  0.2235173  0.2235175 -0.1011266  )
        21           Cu  tau(  21) = (  0.5529652  0.2235175 -0.1011266  )
        22           Cu  tau(  22) = ( -0.1109373  0.5554688 -0.1024228  )
        23           Cu  tau(  23) = (  0.2235172  0.5529655 -0.1011266  )
        24           Cu  tau(  24) = (  0.5554684  0.5554688 -0.1024228  )
        25           Cu  tau(  25) = ( -0.1108629  0.8891376 -0.1030987  )
        26           Cu  tau(  26) = (  0.2217253  0.8891376 -0.1030987  )
        27           Cu  tau(  27) = (  0.5554684  0.8890632 -0.1024228  )
        28           Cu  tau(  28) = (  0.0000000  0.0000000 -0.0046744  )
        29           Cu  tau(  29) = (  0.3336250 -0.0030808 -0.0051609  )
        30           Cu  tau(  30) = (  0.6694557 -0.0030808 -0.0051609  )
        31           Cu  tau(  31) = ( -0.0030808  0.3336252 -0.0051609  )
        32           Cu  tau(  32) = (  0.3333332  0.3333335  0.0007426  )
        33           Cu  tau(  33) = (  0.6694556  0.3336252 -0.0051609  )
        34           Cu  tau(  34) = ( -0.0030809  0.6694560 -0.0051609  )
        35           Cu  tau(  35) = (  0.3336249  0.6694560 -0.0051609  )
        36           Cu  tau(  36) = (  0.6666665  0.6666670 -0.0045256  )
        37           C   tau(  37) = (  0.3333332  0.3333335  0.0888339  )
        38           O   tau(  38) = (  0.3333332  0.3333335  0.1427902  )

     number of k points=    64  Marzari-Vanderbilt smearing, width (Ry)=  0.0073
                       cart. coord. in units 2pi/alat
        k(    1) = (   0.0000000   0.0000000   0.0000000), wk =   0.0312500
[...]
     atom   15 type  1   force =    -0.00000006    0.00086385   -0.01711204
     atom   16 type  1   force =     0.00000010    0.00587036   -0.02433369
     atom   17 type  1   force =     0.00074809   -0.00043227   -0.01711195
     atom   18 type  1   force =    -0.00074819   -0.00043229   -0.01711196
     atom   19 type  1   force =    -0.00000002    0.00388277    0.02789332
     atom   20 type  1   force =    -0.01491827   -0.00861285    0.00494452
     atom   21 type  1   force =     0.01491829   -0.00861278    0.00494451
     atom   22 type  1   force =     0.00651121   -0.00375925    0.03014872
     atom   23 type  1   force =     0.00000004    0.01722630    0.00494456
     atom   24 type  1   force =    -0.00651127   -0.00375921    0.03014864
     atom   25 type  1   force =    -0.00336229   -0.00194158    0.02789340
     atom   26 type  1   force =     0.00336235   -0.00194165    0.02789330
     atom   27 type  1   force =    -0.00000003    0.00751819    0.03014866
     atom   28 type  1   force =    -0.00000004    0.00000063    0.11646870
     atom   29 type  1   force =     0.01429577    0.02165863    0.14631561
     atom   30 type  1   force =    -0.01429572    0.02165862    0.14631559
     atom   31 type  1   force =     0.02590427    0.00155131    0.14631586
     atom   32 type  1   force =    -0.00000001   -0.00000015    0.01625485
     atom   33 type  1   force =    -0.02590426    0.00155128    0.14631583
     atom   34 type  1   force =     0.01160848   -0.02320991    0.14631555
     atom   35 type  1   force =    -0.01160853   -0.02320995    0.14631549
     atom   36 type  1   force =     0.00000000   -0.00000045    0.12116305
     atom   37 type  2   force =     0.00000001   -0.00000002    0.79774567
     atom   38 type  3   force =    -0.00000000    0.00000004   -2.76104029
     The ionic contribution  to forces
     atom    1 type  1   force =    -0.00000274    0.00004914   74.58034913
     atom    2 type  1   force =    -0.03598218   -0.00358976   74.43254298
     atom    3 type  1   force =     0.03598453   -0.00359129   74.43254340
     atom    4 type  1   force =    -0.02114381   -0.02933444   74.43256728
     atom    5 type  1   force =    -0.00000021    0.00000670   74.43649538
     atom    6 type  1   force =     0.02114388   -0.02933729   74.43256638
     atom    7 type  1   force =     0.01483823    0.03293050   74.43256389
     atom    8 type  1   force =    -0.01484082    0.03292918   74.43256256
     atom    9 type  1   force =     0.00000286   -0.00005238   74.40597219
     atom   10 type  1   force =    -0.06571807   -0.03787995  221.54512082
     atom   11 type  1   force =     0.00000073    0.08654457  221.58238763
     atom   12 type  1   force =     0.06571730   -0.03788265  221.54512121
     atom   13 type  1   force =     0.07489604   -0.04324230  221.58240493
     atom   14 type  1   force =    -0.07489826   -0.04324436  221.58240536
     atom   15 type  1   force =     0.00000238   -0.04345049  221.39703337
     atom   16 type  1   force =    -0.00000295    0.07582494  221.54515281
     atom   17 type  1   force =    -0.03762662    0.02166570  221.39704758
     atom   18 type  1   force =     0.03762998    0.02166506  221.39704752
     atom   19 type  1   force =    -0.00000250   -0.11439570  368.04459460
     atom   20 type  1   force =    -0.16535683   -0.09541227  370.63973369
     atom   21 type  1   force =     0.16535875   -0.09541432  370.63973406
     atom   22 type  1   force =    -0.05376580    0.03102518  368.89603608
     atom   23 type  1   force =    -0.00000079    0.19092106  370.63972585
     atom   24 type  1   force =     0.05376642    0.03102248  368.89603643
     atom   25 type  1   force =     0.09911693    0.05718559  368.04459306
     atom   26 type  1   force =    -0.09911967    0.05718496  368.04459300
     atom   27 type  1   force =     0.00000326   -0.06212427  368.89604155
     atom   28 type  1   force =    -0.00000309    0.00003913  517.46198804
     atom   29 type  1   force =    -0.66179914   -0.90917393  515.70555367
     atom   30 type  1   force =     0.66180141   -0.90917525  515.70555232
     atom   31 type  1   force =    -1.11830275   -0.11851803  515.70553394
     atom   32 type  1   force =     0.00000020    0.00000939  515.11599737
     atom   33 type  1   force =     1.11830267   -0.11852089  515.70553304
     atom   34 type  1   force =    -0.45650176    1.02769346  515.70553067
     atom   35 type  1   force =     0.45649952    1.02769191  515.70553110
     atom   36 type  1   force =     0.00000288   -0.00005038  517.76704560
     atom   37 type  2   force =     0.00000002    0.00000065  208.26518133
     atom   38 type  3   force =     0.00000001    0.00000034  336.98199254
     The local contribution  to forces
     atom    1 type  1   force =     0.00000268   -0.00004933  -74.46517469
     atom    2 type  1   force =     0.03651998    0.01079909  -74.32541808
     atom    3 type  1   force =    -0.03652234    0.01080059  -74.32541844
     atom    4 type  1   force =     0.02765620    0.02619558  -74.32544194
     atom    5 type  1   force =     0.00000019   -0.00000667  -74.31861615
     atom    6 type  1   force =    -0.02765627    0.02619842  -74.32544103
     atom    7 type  1   force =    -0.00886361   -0.03700087  -74.32543900
     atom    8 type  1   force =     0.00886614   -0.03699956  -74.32543772
     atom    9 type  1   force =    -0.00000280    0.00005246  -74.29587363
     atom   10 type  1   force =     0.07039196    0.04057860 -221.52038990
     atom   11 type  1   force =    -0.00000067   -0.08736059 -221.54962266
     atom   12 type  1   force =    -0.07039124    0.04058119 -221.52039027
     atom   13 type  1   force =    -0.07560290    0.04365038 -221.54963994
     atom   14 type  1   force =     0.07560504    0.04365232 -221.54964029
     atom   15 type  1   force =    -0.00000227    0.04252886 -221.38003743
     atom   16 type  1   force =     0.00000284   -0.08122193 -221.52042183
     atom   17 type  1   force =     0.03682857   -0.02120498 -221.38005161
     atom   18 type  1   force =    -0.03683181   -0.02120430 -221.38005152
     atom   19 type  1   force =     0.00000252    0.11023384 -368.07245851
     atom   20 type  1   force =     0.17904690    0.10331633 -370.64529778
     atom   21 type  1   force =    -0.17904886    0.10331838 -370.64529821
     atom   22 type  1   force =     0.04697856   -0.02710667 -368.92726822
     atom   23 type  1   force =     0.00000081   -0.20672922 -370.64529003
     atom   24 type  1   force =    -0.04697917   -0.02710401 -368.92726843
     atom   25 type  1   force =    -0.09551260   -0.05510464 -368.07245707
     atom   26 type  1   force =     0.09551534   -0.05510389 -368.07245682
     atom   27 type  1   force =    -0.00000328    0.05428701 -368.92727361
     atom   28 type  1   force =     0.00000320   -0.00003937 -517.56285576
     atom   29 type  1   force =     0.64780427    0.88820712 -515.83473769
     atom   30 type  1   force =    -0.64780670    0.88820846 -515.83473628
     atom   31 type  1   force =     1.09314772    0.11688161 -515.83471835
     atom   32 type  1   force =    -0.00000017   -0.00000920 -515.15595416
     atom   33 type  1   force =    -1.09314767    0.11688454 -515.83471743
     atom   34 type  1   force =     0.44534161   -1.00509028 -515.83471464
     atom   35 type  1   force =    -0.44533924   -1.00508872 -515.83471509
     atom   36 type  1   force =    -0.00000294    0.00005045 -517.87059055
     atom   37 type  2   force =    -0.00000002   -0.00000066 -209.05904097
     atom   38 type  3   force =    -0.00000002   -0.00000035 -334.23909050
     The core correction contribution to forces
     atom    1 type  1   force =     0.00000000   -0.00000007    0.01670272
     atom    2 type  1   force =    -0.00011458    0.00013743    0.01690306
     atom    3 type  1   force =     0.00011457    0.00013743    0.01690305
     atom    4 type  1   force =     0.00006178   -0.00016797    0.01690303
     atom    5 type  1   force =     0.00000000   -0.00000000    0.01632016
     atom    6 type  1   force =    -0.00006178   -0.00016797    0.01690304
     atom    7 type  1   force =     0.00017636    0.00003053    0.01690303
     atom    8 type  1   force =    -0.00017636    0.00003053    0.01690303
     atom    9 type  1   force =    -0.00000000    0.00000005    0.01695046
     atom   10 type  1   force =     0.00037246    0.00021498   -0.00037986
     atom   11 type  1   force =    -0.00000000   -0.00040241   -0.00103695
     atom   12 type  1   force =    -0.00037246    0.00021498   -0.00037986
     atom   13 type  1   force =    -0.00034844    0.00020117   -0.00103697
     atom   14 type  1   force =     0.00034845    0.00020117   -0.00103697
     atom   15 type  1   force =    -0.00000000    0.00008330    0.00012408
     atom   16 type  1   force =     0.00000000   -0.00043002   -0.00037990
     atom   17 type  1   force =     0.00007215   -0.00004159    0.00012406
     atom   18 type  1   force =    -0.00007215   -0.00004158    0.00012406
     atom   19 type  1   force =     0.00000000   -0.00006822    0.00039774
     atom   20 type  1   force =     0.00122276    0.00070591    0.00063147
     atom   21 type  1   force =    -0.00122276    0.00070591    0.00063147
     atom   22 type  1   force =     0.00027607   -0.00015939    0.00112108
     atom   23 type  1   force =     0.00000000   -0.00141191    0.00063148
     atom   24 type  1   force =    -0.00027607   -0.00015939    0.00112108
     atom   25 type  1   force =     0.00005904    0.00003414    0.00039775
     atom   26 type  1   force =    -0.00005903    0.00003415    0.00039775
     atom   27 type  1   force =    -0.00000001    0.00031884    0.00112108
     atom   28 type  1   force =     0.00000000   -0.00000005   -0.01709021
     atom   29 type  1   force =    -0.00035074   -0.00067639   -0.01710973
     atom   30 type  1   force =     0.00035074   -0.00067639   -0.01710972
     atom   31 type  1   force =    -0.00076109    0.00003442   -0.01710970
     atom   32 type  1   force =    -0.00000000    0.00000001    0.02369262
     atom   33 type  1   force =     0.00076109    0.00003442   -0.01710970
     atom   34 type  1   force =    -0.00041035    0.00064198   -0.01710970
     atom   35 type  1   force =     0.00041036    0.00064197   -0.01710970
     atom   36 type  1   force =    -0.00000000    0.00000006   -0.01765604
     atom   37 type  2   force =    -0.00000000    0.00000004   -0.00380125
     atom   38 type  3   force =     0.00000000   -0.00000000    0.01804027
     The Hubbard contrib.    to forces
     atom    1 type  1   force =     0.00000000    0.00000000    0.00000000
     atom    2 type  1   force =     0.00000000    0.00000000    0.00000000
     atom    3 type  1   force =     0.00000000    0.00000000    0.00000000
     atom    4 type  1   force =     0.00000000    0.00000000    0.00000000
     atom    5 type  1   force =     0.00000000    0.00000000    0.00000000
     atom    6 type  1   force =     0.00000000    0.00000000    0.00000000
     atom    7 type  1   force =     0.00000000    0.00000000    0.00000000
     atom    8 type  1   force =     0.00000000    0.00000000    0.00000000
     atom    9 type  1   force =     0.00000000    0.00000000    0.00000000
     atom   10 type  1   force =     0.00000000    0.00000000    0.00000000
     atom   11 type  1   force =     0.00000000    0.00000000    0.00000000
     atom   12 type  1   force =     0.00000000    0.00000000    0.00000000
     atom   13 type  1   force =     0.00000000    0.00000000    0.00000000
     atom   14 type  1   force =     0.00000000    0.00000000    0.00000000
     atom   15 type  1   force =     0.00000000    0.00000000    0.00000000
     atom   16 type  1   force =     0.00000000    0.00000000    0.00000000
     atom   17 type  1   force =     0.00000000    0.00000000    0.00000000
     atom   18 type  1   force =     0.00000000    0.00000000    0.00000000
     atom   19 type  1   force =     0.00000000    0.00000000    0.00000000
     atom   20 type  1   force =     0.00000000    0.00000000    0.00000000
     atom   21 type  1   force =     0.00000000    0.00000000    0.00000000
     atom   22 type  1   force =     0.00000000    0.00000000    0.00000000
     atom   23 type  1   force =     0.00000000    0.00000000    0.00000000
     atom   24 type  1   force =     0.00000000    0.00000000    0.00000000
     atom   25 type  1   force =     0.00000000    0.00000000    0.00000000
     atom   26 type  1   force =     0.00000000    0.00000000    0.00000000
     atom   27 type  1   force =     0.00000000    0.00000000    0.00000000
     atom   28 type  1   force =     0.00000000    0.00000000    0.00000000
     atom   29 type  1   force =     0.00000000    0.00000000    0.00000000
     atom   30 type  1   force =     0.00000000    0.00000000    0.00000000
     atom   31 type  1   force =     0.00000000    0.00000000    0.00000000
     atom   32 type  1   force =     0.00000000    0.00000000    0.00000000
     atom   33 type  1   force =     0.00000000    0.00000000    0.00000000
     atom   34 type  1   force =     0.00000000    0.00000000    0.00000000
     atom   35 type  1   force =     0.00000000    0.00000000    0.00000000
     atom   36 type  1   force =     0.00000000    0.00000000    0.00000000
     atom   37 type  2   force =     0.00000000    0.00000000    0.00000000
     atom   38 type  3   force =     0.00000000    0.00000000    0.00000000
     The SCF correction term to forces
     atom    1 type  1   force =     0.00000000    0.00000000    0.00000000
     atom    2 type  1   force =     0.00000000    0.00000000    0.00000000
     atom    3 type  1   force =     0.00000000    0.00000000    0.00000000
     atom    4 type  1   force =     0.00000000    0.00000000    0.00000000
     atom    5 type  1   force =     0.00000000    0.00000000    0.00000000
     atom    6 type  1   force =     0.00000000    0.00000000    0.00000000
     atom    7 type  1   force =     0.00000000    0.00000000    0.00000000
     atom    8 type  1   force =     0.00000000    0.00000000    0.00000000
     atom    9 type  1   force =     0.00000000    0.00000000    0.00000000
     atom   10 type  1   force =     0.00000092    0.00000033    0.00000371
     atom   11 type  1   force =    -0.00000005    0.00000017    0.00000410
     atom   12 type  1   force =    -0.00000091    0.00000052    0.00000363
     atom   13 type  1   force =     0.00000029   -0.00000023    0.00000410
     atom   14 type  1   force =    -0.00000025   -0.00000002    0.00000399
     atom   15 type  1   force =    -0.00000016    0.00000084    0.00000400
     atom   16 type  1   force =     0.00000015   -0.00000097    0.00000369
     atom   17 type  1   force =     0.00000057   -0.00000036    0.00000409
     atom   18 type  1   force =    -0.00000071   -0.00000041    0.00000407
     atom   19 type  1   force =     0.00000002    0.00000186    0.00000131
     atom   20 type  1   force =     0.00000101    0.00000045    0.00000248
     atom   21 type  1   force =    -0.00000099    0.00000054    0.00000256
     atom   22 type  1   force =    -0.00000030    0.00000022    0.00000229
     atom   23 type  1   force =    -0.00000001   -0.00000114    0.00000250
     atom   24 type  1   force =     0.00000025    0.00000028    0.00000212
     atom   25 type  1   force =    -0.00000174   -0.00000097    0.00000138
     atom   26 type  1   force =     0.00000177   -0.00000106    0.00000119
     atom   27 type  1   force =     0.00000005   -0.00000030    0.00000224
     atom   28 type  1   force =    -0.00000006    0.00000002    0.00000317
     atom   29 type  1   force =     0.00000212    0.00000041    0.00000229
     atom   30 type  1   force =    -0.00000194    0.00000039    0.00000228
     atom   31 type  1   force =     0.00000138    0.00000152    0.00000239
     atom   32 type  1   force =     0.00000001   -0.00000012    0.00000191
     atom   33 type  1   force =    -0.00000135    0.00000149    0.00000238
     atom   34 type  1   force =    -0.00000072   -0.00000186    0.00000229
     atom   35 type  1   force =     0.00000055   -0.00000186    0.00000234
     atom   36 type  1   force =     0.00000008    0.00000010    0.00000217
     atom   37 type  2   force =    -0.00000000   -0.00000001   -0.00000102
     atom   38 type  3   force =     0.00000001   -0.00000001    0.00000114

     Total force =     0.001780     Total SCF correction =     0.000017

     Writing all to output data dir tmp/Cu-vib.save/

     General routines

     Parallel routines

     PAW routines

   This run was terminated on:  20:54:30  13Jun2024

   JOB DONE.