     Program PWSCF v.7.2 starts on  4Oct2024 at  8:41:43

     Reading input from slab_950.pwi
Warning: card &CELL ignored
Warning: card / ignored

     Current dimensions of program PWSCF are:
     Max number of different atomic species (ntypx) = 10
     Max number of k-points (npk) =  40000
     Max angular momentum in pseudopotentials (lmaxx) =  4
     file Cu.pbe-dn-kjpaw_psl.1.0.0.UPF: wavefunction(s)  4S 3D renormalized

     IMPORTANT: XC functional enforced from input :
     Exchange-correlation= BEEF-VDW
                           (   1   4  43  14   2   0   0)
     Any further DFT definition will be discarded
     Please, verify this is what you really want

     Found identity + (  0.3333  0.0000  0.0000) symmetry
     This is a supercell, fractional translations are disabled
     Message from routine setup:
     using ibrav=0 with symmetry is DISCOURAGED, use correct ibrav instead

     R & G space division:  proc/nbgrp/npool/nimage =      64
     Subspace diagonalization in iterative solution of the eigenvalue problem:
     one sub-group per band group will be used

     Using Slab Decomposition

     Title:
     slab_950

     bravais-lattice index     =            0
     lattice parameter (alat)  =      14.6266  a.u.
     unit-cell volume          =    7464.4948 (a.u.)^3
     number of atoms/cell      =           36
     number of atomic types    =            1
     number of electrons       =       396.00
     number of Kohn-Sham states=          238
     kinetic-energy cutoff     =      69.8237  Ry
     charge density cutoff     =     698.2371  Ry
     scf convergence threshold =      7.3E-12
     mixing beta               =       0.3333
     number of iterations used =           12  plain     mixing
     energy convergence thresh.=      7.3E-07
     force convergence thresh. =      3.9E-04
     Exchange-correlation= BEEF-VDW
                           (   1   4  43  14   2   0   0)
     nstep                     =           50

     Effective Screening Medium Method
     Boundary Conditions: Vacuum-Slab-Metal
     total charge in unit cell        =   0.0000
     grid points for fit at edges     =        4

     celldm(1)=  14.626634  celldm(2)=   0.000000  celldm(3)=   0.000000
     celldm(4)=   0.000000  celldm(5)=   0.000000  celldm(6)=   0.000000

     crystal axes: (cart. coord. in units of alat)
               a(1) = (   1.000000   0.000000   0.000000 )
               a(2) = (   0.500000   0.866025   0.000000 )
               a(3) = (   0.000000   0.000000   2.754461 )

     reciprocal axes: (cart. coord. in units 2 pi/alat)
               b(1) = (  1.000000 -0.577350  0.000000 )
               b(2) = (  0.000000  1.154701  0.000000 )
               b(3) = (  0.000000  0.000000  0.363047 )

     PseudoPot. # 1 for Cu read from file:
     /home/k0227/k022716/QE/pseudo/Cu.pbe-dn-kjpaw_psl.1.0.0.UPF
     MD5 check sum: 67c40f9e1593dc2d139023e70404cc2a
     Pseudo is Projector augmented-wave + core cor, Zval = 11.0
     Generated using "atomic" code by A. Dal Corso  v.6.1 svn rev. 13369
     Shape of augmentation charge: PSQ
     Using radial grid of 1199 points,  6 beta functions with:
                l(1) =   0
                l(2) =   0
                l(3) =   1
                l(4) =   1
                l(5) =   2
                l(6) =   2
     Q(r) pseudized with 0 coefficients

     atomic species   valence    mass     pseudopotential
        Cu            11.00    63.54600     Cu( 1.00)

      6 Sym. Ops. (no inversion) found

                                    s                        frac. trans.

      isym =  1     identity

 cryst.   s( 1) = (     1          0          0      )
                  (     0          1          0      )
                  (     0          0          1      )

 cart.    s( 1) = (  1.0000000  0.0000000  0.0000000 )
                  (  0.0000000  1.0000000  0.0000000 )
                  (  0.0000000  0.0000000  1.0000000 )

      isym =  2     120 deg rotation - cryst. axis [0,0,1]

[...]

      isym =  3     120 deg rotation - cryst. axis [0,0,-1]

[...]

      isym =  4     inv. 180 deg rotation - cart. axis [1,0,0]

[...]

      isym =  5     inv. 180 deg rotation - cryst. axis [0,1,0]

[...]

      isym =  6     inv. 180 deg rotation - cryst. axis [1,1,0]

 cryst.   s( 6) = (     1         -1          0      )
                  (     0         -1          0      )
                  (     0          0          1      )

 cart.    s( 6) = (  0.5000000 -0.8660254  0.0000000 )
                  ( -0.8660254 -0.5000000  0.0000000 )
                  (  0.0000000  0.0000000  1.0000000 )

   Cartesian axes

     site n.     atom                  positions (alat units)
         1           Cu  tau(   1) = (   0.0000000   0.0000000  -0.8214174  )
         2           Cu  tau(   2) = (   0.3333333   0.0000000  -0.8214174  )
         3           Cu  tau(   3) = (   0.6666667   0.0000000  -0.8214174  )
         4           Cu  tau(   4) = (   0.1666667   0.2886751  -0.8214174  )
         5           Cu  tau(   5) = (   0.5000000   0.2886751  -0.8214174  )
         6           Cu  tau(   6) = (   0.8333333   0.2886751  -0.8214174  )
         7           Cu  tau(   7) = (   0.3333333   0.5773503  -0.8214174  )
         8           Cu  tau(   8) = (   0.6666667   0.5773503  -0.8214174  )
         9           Cu  tau(   9) = (   1.0000000   0.5773503  -0.8214174  )
        10           Cu  tau(  10) = (   0.1666667   0.0962250  -0.5492519  )
        11           Cu  tau(  11) = (   0.5000000   0.0962250  -0.5492519  )
        12           Cu  tau(  12) = (   0.8333333   0.0962250  -0.5492519  )
        13           Cu  tau(  13) = (   0.3333333   0.3849002  -0.5492519  )
        14           Cu  tau(  14) = (   0.6666667   0.3849002  -0.5492519  )
        15           Cu  tau(  15) = (   1.0000000   0.3849002  -0.5492519  )
        16           Cu  tau(  16) = (   0.5000000   0.6735753  -0.5492519  )
        17           Cu  tau(  17) = (   0.8333333   0.6735753  -0.5492519  )
        18           Cu  tau(  18) = (   1.1666667   0.6735753  -0.5492519  )
        19           Cu  tau(  19) = (   0.0000000   0.1924501  -0.2770863  )
        20           Cu  tau(  20) = (   0.3333333   0.1924501  -0.2770863  )
        21           Cu  tau(  21) = (   0.6666667   0.1924501  -0.2770863  )
        22           Cu  tau(  22) = (   0.1666667   0.4811252  -0.2770863  )
        23           Cu  tau(  23) = (   0.5000000   0.4811252  -0.2770863  )
        24           Cu  tau(  24) = (   0.8333333   0.4811252  -0.2770863  )
        25           Cu  tau(  25) = (   0.3333333   0.7698004  -0.2770863  )
        26           Cu  tau(  26) = (   0.6666667   0.7698004  -0.2770863  )
        27           Cu  tau(  27) = (   1.0000000   0.7698004  -0.2770863  )
        28           Cu  tau(  28) = (   0.0000000   0.0000000  -0.0049208  )
        29           Cu  tau(  29) = (   0.3333333   0.0000000  -0.0049208  )
        30           Cu  tau(  30) = (   0.6666667   0.0000000  -0.0049208  )
        31           Cu  tau(  31) = (   0.1666667   0.2886751  -0.0049208  )
        32           Cu  tau(  32) = (   0.5000000   0.2886751  -0.0049208  )
        33           Cu  tau(  33) = (   0.8333333   0.2886751  -0.0049208  )
        34           Cu  tau(  34) = (   0.3333333   0.5773503  -0.0049208  )
        35           Cu  tau(  35) = (   0.6666667   0.5773503  -0.0049208  )
        36           Cu  tau(  36) = (   1.0000000   0.5773503  -0.0049208  )

   Crystallographic axes

     site n.     atom                  positions (cryst. coord.)
         1           Cu  tau(   1) = (  0.0000000  0.0000000 -0.2982135  )
         2           Cu  tau(   2) = (  0.3333333  0.0000000 -0.2982135  )
         3           Cu  tau(   3) = (  0.6666667  0.0000000 -0.2982135  )
         4           Cu  tau(   4) = (  0.0000000  0.3333333 -0.2982135  )
         5           Cu  tau(   5) = (  0.3333333  0.3333333 -0.2982135  )
         6           Cu  tau(   6) = (  0.6666667  0.3333333 -0.2982135  )
         7           Cu  tau(   7) = (  0.0000000  0.6666667 -0.2982135  )
         8           Cu  tau(   8) = (  0.3333333  0.6666667 -0.2982135  )
         9           Cu  tau(   9) = (  0.6666667  0.6666667 -0.2982135  )
        10           Cu  tau(  10) = (  0.1111111  0.1111111 -0.1994045  )
        11           Cu  tau(  11) = (  0.4444444  0.1111111 -0.1994045  )
        12           Cu  tau(  12) = (  0.7777778  0.1111111 -0.1994045  )
        13           Cu  tau(  13) = (  0.1111111  0.4444444 -0.1994045  )
        14           Cu  tau(  14) = (  0.4444444  0.4444444 -0.1994045  )
        15           Cu  tau(  15) = (  0.7777778  0.4444444 -0.1994045  )
        16           Cu  tau(  16) = (  0.1111111  0.7777778 -0.1994045  )
        17           Cu  tau(  17) = (  0.4444444  0.7777778 -0.1994045  )
        18           Cu  tau(  18) = (  0.7777778  0.7777778 -0.1994045  )
        19           Cu  tau(  19) = ( -0.1111111  0.2222222 -0.1005955  )
        20           Cu  tau(  20) = (  0.2222222  0.2222222 -0.1005955  )
        21           Cu  tau(  21) = (  0.5555556  0.2222222 -0.1005955  )
        22           Cu  tau(  22) = ( -0.1111111  0.5555556 -0.1005955  )
        23           Cu  tau(  23) = (  0.2222222  0.5555556 -0.1005955  )
        24           Cu  tau(  24) = (  0.5555556  0.5555556 -0.1005955  )
        25           Cu  tau(  25) = ( -0.1111111  0.8888889 -0.1005955  )
        26           Cu  tau(  26) = (  0.2222222  0.8888889 -0.1005955  )
        27           Cu  tau(  27) = (  0.5555556  0.8888889 -0.1005955  )
        28           Cu  tau(  28) = (  0.0000000  0.0000000 -0.0017865  )
        29           Cu  tau(  29) = (  0.3333333  0.0000000 -0.0017865  )
        30           Cu  tau(  30) = (  0.6666667  0.0000000 -0.0017865  )
        31           Cu  tau(  31) = (  0.0000000  0.3333333 -0.0017865  )
        32           Cu  tau(  32) = (  0.3333333  0.3333333 -0.0017865  )
        33           Cu  tau(  33) = (  0.6666667  0.3333333 -0.0017865  )
        34           Cu  tau(  34) = (  0.0000000  0.6666667 -0.0017865  )
        35           Cu  tau(  35) = (  0.3333333  0.6666667 -0.0017865  )
        36           Cu  tau(  36) = (  0.6666667  0.6666667 -0.0017865  )

     number of k points=    10  Marzari-Vanderbilt smearing, width (Ry)=  0.0073
                       cart. coord. in units 2pi/alat
        k(    1) = (   0.0000000   0.0000000   0.0000000), wk =   0.0312500
        k(    2) = (   0.0000000   0.1443376   0.0000000), wk =   0.1875000
        k(    3) = (   0.0000000   0.2886751   0.0000000), wk =   0.1875000
        k(    4) = (   0.0000000   0.4330127   0.0000000), wk =   0.1875000
        k(    5) = (   0.0000000  -0.5773503   0.0000000), wk =   0.0937500
        k(    6) = (   0.1250000   0.2165064   0.0000000), wk =   0.1875000
        k(    7) = (   0.1250000   0.3608439   0.0000000), wk =   0.3750000
        k(    8) = (   0.1250000  -0.6495191   0.0000000), wk =   0.3750000
        k(    9) = (   0.2500000  -0.7216878   0.0000000), wk =   0.1875000
[...]
     atom    5 type  1   force =     0.00000000   -0.00000000   74.47028015
     atom    6 type  1   force =     0.00001272    0.00003158   74.47029330
     atom    7 type  1   force =    -0.00003371   -0.00000477   74.47029330
     atom    8 type  1   force =     0.00003371   -0.00000477   74.47029330
     atom    9 type  1   force =    -0.00000000   -0.00000000   74.47041467
     atom   10 type  1   force =     0.00026876    0.00015517  221.58515860
     atom   11 type  1   force =    -0.00000000    0.00002393  221.58485459
     atom   12 type  1   force =    -0.00026876    0.00015517  221.58515860
     atom   13 type  1   force =     0.00002073   -0.00001197  221.58485459
     atom   14 type  1   force =    -0.00002073   -0.00001197  221.58485459
     atom   15 type  1   force =    -0.00000000    0.00022486  221.58543306
     atom   16 type  1   force =     0.00000000   -0.00031034  221.58515860
     atom   17 type  1   force =     0.00019473   -0.00011243  221.58543306
     atom   18 type  1   force =    -0.00019473   -0.00011243  221.58543306
     atom   19 type  1   force =     0.00000000    0.00035312  369.30535696
     atom   20 type  1   force =     0.00021228    0.00012256  369.30423832
     atom   21 type  1   force =    -0.00021228    0.00012256  369.30423832
     atom   22 type  1   force =    -0.00003834    0.00002213  369.30521127
     atom   23 type  1   force =     0.00000000   -0.00024512  369.30423832
     atom   24 type  1   force =     0.00003834    0.00002214  369.30521127
     atom   25 type  1   force =    -0.00030581   -0.00017656  369.30535696
     atom   26 type  1   force =     0.00030581   -0.00017656  369.30535696
     atom   27 type  1   force =    -0.00000000   -0.00004427  369.30521127
     atom   28 type  1   force =     0.00000000    0.00000000  516.42474297
     atom   29 type  1   force =     0.00023549    0.00009201  516.42418689
     atom   30 type  1   force =    -0.00023549    0.00009201  516.42418689
     atom   31 type  1   force =     0.00019743    0.00015793  516.42418689
     atom   32 type  1   force =    -0.00000000    0.00000000  516.42265185
     atom   33 type  1   force =    -0.00019743    0.00015793  516.42418689
     atom   34 type  1   force =    -0.00003806   -0.00024994  516.42418689
     atom   35 type  1   force =     0.00003806   -0.00024994  516.42418689
     atom   36 type  1   force =    -0.00000000   -0.00000000  516.42455243
     The local contribution  to forces
     atom    1 type  1   force =     0.00000000    0.00000000  -74.36105271
     atom    2 type  1   force =    -0.00001982    0.00002654  -74.36119693
     atom    3 type  1   force =     0.00001982    0.00002654  -74.36119693
     atom    4 type  1   force =     0.00001307   -0.00003044  -74.36119693
     atom    5 type  1   force =    -0.00000000   -0.00000000  -74.36118412
     atom    6 type  1   force =    -0.00001308   -0.00003044  -74.36119693
     atom    7 type  1   force =     0.00003289    0.00000389  -74.36119693
     atom    8 type  1   force =    -0.00003290    0.00000389  -74.36119693
     atom    9 type  1   force =    -0.00000001   -0.00000000  -74.36131791
     atom   10 type  1   force =    -0.00026814   -0.00015480 -221.56041562
     atom   11 type  1   force =    -0.00000000   -0.00002422 -221.56011131
     atom   12 type  1   force =     0.00026813   -0.00015480 -221.56041562
     atom   13 type  1   force =    -0.00002099    0.00001212 -221.56011131
     atom   14 type  1   force =     0.00002098    0.00001212 -221.56011131
     atom   15 type  1   force =    -0.00000001   -0.00022380 -221.56069015
     atom   16 type  1   force =    -0.00000000    0.00030962 -221.56041562
     atom   17 type  1   force =    -0.00019382    0.00011190 -221.56069015
     atom   18 type  1   force =     0.00019381    0.00011190 -221.56069015
     atom   19 type  1   force =     0.00000000   -0.00035230 -369.33023152
     atom   20 type  1   force =    -0.00021142   -0.00012207 -369.32911162
     atom   21 type  1   force =     0.00021142   -0.00012207 -369.32911162
     atom   22 type  1   force =     0.00003812   -0.00002202 -369.33008598
     atom   23 type  1   force =    -0.00000000    0.00024412 -369.32911162
     atom   24 type  1   force =    -0.00003813   -0.00002202 -369.33008598
     atom   25 type  1   force =     0.00030509    0.00017614 -369.33023152
     atom   26 type  1   force =    -0.00030510    0.00017614 -369.33023152
     atom   27 type  1   force =    -0.00000001    0.00004401 -369.33008598
     atom   28 type  1   force =     0.00000000    0.00000000 -516.53406015
     atom   29 type  1   force =    -0.00023529   -0.00009281 -516.53350445
     atom   30 type  1   force =     0.00023528   -0.00009281 -516.53350445
     atom   31 type  1   force =    -0.00019802   -0.00015736 -516.53350445
     atom   32 type  1   force =    -0.00000000   -0.00000000 -516.53196338
     atom   33 type  1   force =     0.00019801   -0.00015736 -516.53350445
     atom   34 type  1   force =     0.00003727    0.00025016 -516.53350445
     atom   35 type  1   force =    -0.00003727    0.00025016 -516.53350445
     atom   36 type  1   force =    -0.00000001   -0.00000000 -516.53387264
     The core correction contribution to forces
     atom    1 type  1   force =     0.00000000    0.00000000    0.01667053
     atom    2 type  1   force =    -0.00000192    0.00000077    0.01667387
     atom    3 type  1   force =     0.00000192    0.00000077    0.01667387
     atom    4 type  1   force =    -0.00000030   -0.00000204    0.01667387
     atom    5 type  1   force =    -0.00000000   -0.00000000    0.01667268
     atom    6 type  1   force =     0.00000030   -0.00000204    0.01667387
     atom    7 type  1   force =     0.00000162    0.00000128    0.01667387
     atom    8 type  1   force =    -0.00000162    0.00000128    0.01667387
     atom    9 type  1   force =    -0.00000000   -0.00000000    0.01667341
     atom   10 type  1   force =    -0.00000293   -0.00000169   -0.00045703
     atom   11 type  1   force =    -0.00000000   -0.00000015   -0.00045953
     atom   12 type  1   force =     0.00000293   -0.00000169   -0.00045703
     atom   13 type  1   force =    -0.00000014    0.00000008   -0.00045953
     atom   14 type  1   force =     0.00000013    0.00000008   -0.00045953
     atom   15 type  1   force =    -0.00000000   -0.00000232   -0.00046040
     atom   16 type  1   force =    -0.00000000    0.00000338   -0.00045703
     atom   17 type  1   force =    -0.00000201    0.00000116   -0.00046040
     atom   18 type  1   force =     0.00000201    0.00000116   -0.00046040
     atom   19 type  1   force =     0.00000000   -0.00000366    0.00042590
     atom   20 type  1   force =    -0.00000194   -0.00000112    0.00042847
     atom   21 type  1   force =     0.00000193   -0.00000112    0.00042847
     atom   22 type  1   force =     0.00000089   -0.00000052    0.00042800
     atom   23 type  1   force =    -0.00000000    0.00000223    0.00042847
     atom   24 type  1   force =    -0.00000089   -0.00000052    0.00042800
     atom   25 type  1   force =     0.00000317    0.00000183    0.00042590
     atom   26 type  1   force =    -0.00000317    0.00000183    0.00042590
     atom   27 type  1   force =    -0.00000000    0.00000103    0.00042800
     atom   28 type  1   force =     0.00000000   -0.00000000   -0.01664334
     atom   29 type  1   force =    -0.00000200   -0.00000085   -0.01664172
     atom   30 type  1   force =     0.00000200   -0.00000085   -0.01664172
     atom   31 type  1   force =    -0.00000174   -0.00000131   -0.01664172
     atom   32 type  1   force =    -0.00000000   -0.00000000   -0.01663936
     atom   33 type  1   force =     0.00000174   -0.00000131   -0.01664172
     atom   34 type  1   force =     0.00000026    0.00000216   -0.01664172
     atom   35 type  1   force =    -0.00000026    0.00000216   -0.01664172
     atom   36 type  1   force =    -0.00000000   -0.00000000   -0.01664170
     The Hubbard contrib.    to forces
     atom    1 type  1   force =     0.00000000    0.00000000    0.00000000
     atom    2 type  1   force =     0.00000000    0.00000000    0.00000000
     atom    3 type  1   force =     0.00000000    0.00000000    0.00000000
     atom    4 type  1   force =     0.00000000    0.00000000    0.00000000
     atom    5 type  1   force =     0.00000000    0.00000000    0.00000000
     atom    6 type  1   force =     0.00000000    0.00000000    0.00000000
     atom    7 type  1   force =     0.00000000    0.00000000    0.00000000
     atom    8 type  1   force =     0.00000000    0.00000000    0.00000000
     atom    9 type  1   force =     0.00000000    0.00000000    0.00000000
     atom   10 type  1   force =     0.00000000    0.00000000    0.00000000
     atom   11 type  1   force =     0.00000000    0.00000000    0.00000000
     atom   12 type  1   force =     0.00000000    0.00000000    0.00000000
     atom   13 type  1   force =     0.00000000    0.00000000    0.00000000
     atom   14 type  1   force =     0.00000000    0.00000000    0.00000000
     atom   15 type  1   force =     0.00000000    0.00000000    0.00000000
     atom   16 type  1   force =     0.00000000    0.00000000    0.00000000
     atom   17 type  1   force =     0.00000000    0.00000000    0.00000000
     atom   18 type  1   force =     0.00000000    0.00000000    0.00000000
     atom   19 type  1   force =     0.00000000    0.00000000    0.00000000
     atom   20 type  1   force =     0.00000000    0.00000000    0.00000000
     atom   21 type  1   force =     0.00000000    0.00000000    0.00000000
     atom   22 type  1   force =     0.00000000    0.00000000    0.00000000
     atom   23 type  1   force =     0.00000000    0.00000000    0.00000000
     atom   24 type  1   force =     0.00000000    0.00000000    0.00000000
     atom   25 type  1   force =     0.00000000    0.00000000    0.00000000
     atom   26 type  1   force =     0.00000000    0.00000000    0.00000000
     atom   27 type  1   force =     0.00000000    0.00000000    0.00000000
     atom   28 type  1   force =     0.00000000    0.00000000    0.00000000
     atom   29 type  1   force =     0.00000000    0.00000000    0.00000000
     atom   30 type  1   force =     0.00000000    0.00000000    0.00000000
     atom   31 type  1   force =     0.00000000    0.00000000    0.00000000
     atom   32 type  1   force =     0.00000000    0.00000000    0.00000000
     atom   33 type  1   force =     0.00000000    0.00000000    0.00000000
     atom   34 type  1   force =     0.00000000    0.00000000    0.00000000
     atom   35 type  1   force =     0.00000000    0.00000000    0.00000000
     atom   36 type  1   force =     0.00000000    0.00000000    0.00000000
     The SCF correction term to forces
     atom    1 type  1   force =     0.00000000    0.00000000    0.00000000
     atom    2 type  1   force =     0.00000000    0.00000000    0.00000000
     atom    3 type  1   force =     0.00000000    0.00000000    0.00000000
     atom    4 type  1   force =     0.00000000    0.00000000    0.00000000
     atom    5 type  1   force =     0.00000000    0.00000000    0.00000000
     atom    6 type  1   force =     0.00000000    0.00000000    0.00000000
     atom    7 type  1   force =     0.00000000    0.00000000    0.00000000
     atom    8 type  1   force =     0.00000000    0.00000000    0.00000000
     atom    9 type  1   force =     0.00000000    0.00000000    0.00000000
     atom   10 type  1   force =     0.00000000    0.00000000   -0.00000012
     atom   11 type  1   force =     0.00000000    0.00000001   -0.00000011
     atom   12 type  1   force =    -0.00000000    0.00000000   -0.00000012
     atom   13 type  1   force =     0.00000001   -0.00000000   -0.00000011
     atom   14 type  1   force =    -0.00000001   -0.00000000   -0.00000011
     atom   15 type  1   force =    -0.00000000   -0.00000000   -0.00000011
     atom   16 type  1   force =     0.00000000   -0.00000000   -0.00000012
     atom   17 type  1   force =    -0.00000000    0.00000000   -0.00000011
     atom   18 type  1   force =     0.00000000    0.00000000   -0.00000011
     atom   19 type  1   force =     0.00000000    0.00000000    0.00000045
     atom   20 type  1   force =     0.00000001    0.00000001    0.00000045
     atom   21 type  1   force =    -0.00000001    0.00000001    0.00000045
     atom   22 type  1   force =     0.00000001   -0.00000000    0.00000045
     atom   23 type  1   force =    -0.00000000   -0.00000001    0.00000045
     atom   24 type  1   force =    -0.00000001   -0.00000000    0.00000045
     atom   25 type  1   force =    -0.00000000   -0.00000000    0.00000045
     atom   26 type  1   force =     0.00000000   -0.00000000    0.00000045
     atom   27 type  1   force =     0.00000000    0.00000001    0.00000045
     atom   28 type  1   force =    -0.00000000    0.00000000   -0.00000015
     atom   29 type  1   force =     0.00000000    0.00000000   -0.00000015
     atom   30 type  1   force =    -0.00000000    0.00000000   -0.00000015
     atom   31 type  1   force =     0.00000000   -0.00000000   -0.00000015
     atom   32 type  1   force =     0.00000000   -0.00000000   -0.00000017
     atom   33 type  1   force =    -0.00000000   -0.00000000   -0.00000015
     atom   34 type  1   force =     0.00000000   -0.00000000   -0.00000015
     atom   35 type  1   force =    -0.00000000   -0.00000000   -0.00000015
     atom   36 type  1   force =     0.00000000    0.00000000   -0.00000015

     Total force =     0.000724     Total SCF correction =     0.000001
     Energy error            =      1.2E-07 Ry
     Gradient error          =      1.7E-04 Ry/Bohr

     bfgs converged in  17 scf cycles and  15 bfgs steps
     (criteria: energy <  7.3E-07 Ry, force <  3.9E-04 Ry/Bohr)

     End of BFGS Geometry Optimization

     Final energy             =   -7840.4360982046 Ry

     File tmp_950/slab_950.bfgs deleted, as requested
Begin final coordinates

ATOMIC_POSITIONS (angstrom)
Cu            0.0000000000        0.0000000000       -6.3578375836    0   0   0
Cu            2.5800271862        0.0000000000       -6.3578375836    0   0   0
Cu            5.1600543724       -0.0000000000       -6.3578375836    0   0   0
Cu            1.2900135931        2.2343690857       -6.3578375836    0   0   0
Cu            3.8700407793        2.2343690857       -6.3578375836    0   0   0
Cu            6.4500679655        2.2343690857       -6.3578375836    0   0   0
Cu            2.5800271862        4.4687381714       -6.3578375836    0   0   0
Cu            5.1600543724        4.4687381714       -6.3578375836    0   0   0
Cu            7.7400815586        4.4687381714       -6.3578375836    0   0   0
Cu            1.2900063253        0.7447854991       -4.2684431966
Cu            3.8700407793        0.7447873183       -4.2684502924
Cu            6.4500752333        0.7447854991       -4.2684431966
Cu            2.5800251277        2.9791599694       -4.2684502924
Cu            5.1600564309        2.9791599694       -4.2684502924
Cu            7.7400815586        2.9791548412       -4.2684412043
Cu            3.8700407793        5.2135362587       -4.2684431966
Cu            6.4500645536        5.2135298364       -4.2684412043
Cu            9.0300985636        5.2135298364       -4.2684412043
Cu           -0.0000000000        1.4895725080       -2.1783422472
Cu            2.5800216203        1.4895761771       -2.1783588354
Cu            5.1600599383        1.4895761771       -2.1783588354
Cu            1.2900137417        3.7239483904       -2.1783439694
Cu            3.8700407793        3.7239549031       -2.1783588354
Cu            6.4500678169        3.7239483904       -2.1783439694
Cu            2.5800331466        5.9583210032       -2.1783422472
Cu            5.1600484120        5.9583210032       -2.1783422472
Cu            7.7400815586        5.9583177335       -2.1783439694
Cu           -0.0000000000        0.0000000000       -0.0876597778
Cu            2.5800238744        0.0000001545       -0.0876671205
Cu            5.1600576842        0.0000001545       -0.0876671205
Cu            1.2900120710        2.2343661403       -0.0876671205
Cu            3.8700407793        2.2343690857       -0.0876935293
Cu            6.4500694876        2.2343661403       -0.0876671205
Cu            2.5800289759        4.4687409623       -0.0876671205
Cu            5.1600525827        4.4687409623       -0.0876671205
Cu            7.7400815586        4.4687381714       -0.0876594381
End final coordinates

     Writing all to output data dir tmp_950/slab_950.save/

     General routines

     Parallel routines

     PAW routines

   This run was terminated on:  11:23:44   4Oct2024

   JOB DONE.