     Program PWSCF v.7.2 starts on  4Oct2024 at  8:45:10

     Reading input from slab_1050.pwi
Warning: card &CELL ignored
Warning: card / ignored

     Current dimensions of program PWSCF are:
     Max number of different atomic species (ntypx) = 10
     Max number of k-points (npk) =  40000
     Max angular momentum in pseudopotentials (lmaxx) =  4
     file Cu.pbe-dn-kjpaw_psl.1.0.0.UPF: wavefunction(s)  4S 3D renormalized

     IMPORTANT: XC functional enforced from input :
     Exchange-correlation= BEEF-VDW
                           (   1   4  43  14   2   0   0)
     Any further DFT definition will be discarded
     Please, verify this is what you really want

     Found identity + (  0.3333  0.0000  0.0000) symmetry
     This is a supercell, fractional translations are disabled
     Message from routine setup:
     using ibrav=0 with symmetry is DISCOURAGED, use correct ibrav instead

     R & G space division:  proc/nbgrp/npool/nimage =      64
     Subspace diagonalization in iterative solution of the eigenvalue problem:
     one sub-group per band group will be used

     Using Slab Decomposition

     Title:
     slab_1050

     bravais-lattice index     =            0
     lattice parameter (alat)  =      14.6270  a.u.
     unit-cell volume          =    7464.9188 (a.u.)^3
     number of atoms/cell      =           36
     number of atomic types    =            1
     number of electrons       =       396.00
     number of Kohn-Sham states=          238
     kinetic-energy cutoff     =      77.1736  Ry
     charge density cutoff     =     771.7358  Ry
     scf convergence threshold =      7.3E-12
     mixing beta               =       0.3333
     number of iterations used =           12  plain     mixing
     energy convergence thresh.=      7.3E-07
     force convergence thresh. =      3.9E-04
     Exchange-correlation= BEEF-VDW
                           (   1   4  43  14   2   0   0)
     nstep                     =           50

     Effective Screening Medium Method
     Boundary Conditions: Vacuum-Slab-Metal
     total charge in unit cell        =   0.0000
     grid points for fit at edges     =        4

     celldm(1)=  14.626996  celldm(2)=   0.000000  celldm(3)=   0.000000
     celldm(4)=   0.000000  celldm(5)=   0.000000  celldm(6)=   0.000000

     crystal axes: (cart. coord. in units of alat)
               a(1) = (   1.000000   0.000000   0.000000 )
               a(2) = (   0.500000   0.866025   0.000000 )
               a(3) = (   0.000000   0.000000   2.754413 )

     reciprocal axes: (cart. coord. in units 2 pi/alat)
               b(1) = (  1.000000 -0.577350  0.000000 )
               b(2) = (  0.000000  1.154701  0.000000 )
               b(3) = (  0.000000  0.000000  0.363054 )

     PseudoPot. # 1 for Cu read from file:
     /home/k0227/k022716/QE/pseudo/Cu.pbe-dn-kjpaw_psl.1.0.0.UPF
     MD5 check sum: 67c40f9e1593dc2d139023e70404cc2a
     Pseudo is Projector augmented-wave + core cor, Zval = 11.0
     Generated using "atomic" code by A. Dal Corso  v.6.1 svn rev. 13369
     Shape of augmentation charge: PSQ
     Using radial grid of 1199 points,  6 beta functions with:
                l(1) =   0
                l(2) =   0
                l(3) =   1
                l(4) =   1
                l(5) =   2
                l(6) =   2
     Q(r) pseudized with 0 coefficients

     atomic species   valence    mass     pseudopotential
        Cu            11.00    63.54600     Cu( 1.00)

      6 Sym. Ops. (no inversion) found

                                    s                        frac. trans.

      isym =  1     identity

 cryst.   s( 1) = (     1          0          0      )
                  (     0          1          0      )
                  (     0          0          1      )

 cart.    s( 1) = (  1.0000000  0.0000000  0.0000000 )
                  (  0.0000000  1.0000000  0.0000000 )
                  (  0.0000000  0.0000000  1.0000000 )

      isym =  2     120 deg rotation - cryst. axis [0,0,1]

[...]

      isym =  3     120 deg rotation - cryst. axis [0,0,-1]

[...]

      isym =  4     inv. 180 deg rotation - cart. axis [1,0,0]

[...]

      isym =  5     inv. 180 deg rotation - cryst. axis [0,1,0]

[...]

      isym =  6     inv. 180 deg rotation - cryst. axis [1,1,0]

 cryst.   s( 6) = (     1         -1          0      )
                  (     0         -1          0      )
                  (     0          0          1      )

 cart.    s( 6) = (  0.5000000 -0.8660254  0.0000000 )
                  ( -0.8660254 -0.5000000  0.0000000 )
                  (  0.0000000  0.0000000  1.0000000 )

   Cartesian axes

     site n.     atom                  positions (alat units)
         1           Cu  tau(   1) = (   0.0000000   0.0000000  -0.8214102  )
         2           Cu  tau(   2) = (   0.3333333   0.0000000  -0.8214102  )
         3           Cu  tau(   3) = (   0.6666667   0.0000000  -0.8214102  )
         4           Cu  tau(   4) = (   0.1666667   0.2886751  -0.8214102  )
         5           Cu  tau(   5) = (   0.5000000   0.2886751  -0.8214102  )
         6           Cu  tau(   6) = (   0.8333333   0.2886751  -0.8214102  )
         7           Cu  tau(   7) = (   0.3333333   0.5773503  -0.8214102  )
         8           Cu  tau(   8) = (   0.6666667   0.5773503  -0.8214102  )
         9           Cu  tau(   9) = (   1.0000000   0.5773503  -0.8214102  )
        10           Cu  tau(  10) = (   0.1666667   0.0962250  -0.5492447  )
        11           Cu  tau(  11) = (   0.5000000   0.0962250  -0.5492447  )
        12           Cu  tau(  12) = (   0.8333333   0.0962250  -0.5492447  )
        13           Cu  tau(  13) = (   0.3333333   0.3849002  -0.5492447  )
        14           Cu  tau(  14) = (   0.6666667   0.3849002  -0.5492447  )
        15           Cu  tau(  15) = (   1.0000000   0.3849002  -0.5492447  )
        16           Cu  tau(  16) = (   0.5000000   0.6735753  -0.5492447  )
        17           Cu  tau(  17) = (   0.8333333   0.6735753  -0.5492447  )
        18           Cu  tau(  18) = (   1.1666667   0.6735753  -0.5492447  )
        19           Cu  tau(  19) = (   0.0000000   0.1924501  -0.2770791  )
        20           Cu  tau(  20) = (   0.3333333   0.1924501  -0.2770791  )
        21           Cu  tau(  21) = (   0.6666667   0.1924501  -0.2770791  )
        22           Cu  tau(  22) = (   0.1666667   0.4811252  -0.2770791  )
        23           Cu  tau(  23) = (   0.5000000   0.4811252  -0.2770791  )
        24           Cu  tau(  24) = (   0.8333333   0.4811252  -0.2770791  )
        25           Cu  tau(  25) = (   0.3333333   0.7698004  -0.2770791  )
        26           Cu  tau(  26) = (   0.6666667   0.7698004  -0.2770791  )
        27           Cu  tau(  27) = (   1.0000000   0.7698004  -0.2770791  )
        28           Cu  tau(  28) = (   0.0000000   0.0000000  -0.0049136  )
        29           Cu  tau(  29) = (   0.3333333   0.0000000  -0.0049136  )
        30           Cu  tau(  30) = (   0.6666667   0.0000000  -0.0049136  )
        31           Cu  tau(  31) = (   0.1666667   0.2886751  -0.0049136  )
        32           Cu  tau(  32) = (   0.5000000   0.2886751  -0.0049136  )
        33           Cu  tau(  33) = (   0.8333333   0.2886751  -0.0049136  )
        34           Cu  tau(  34) = (   0.3333333   0.5773503  -0.0049136  )
        35           Cu  tau(  35) = (   0.6666667   0.5773503  -0.0049136  )
        36           Cu  tau(  36) = (   1.0000000   0.5773503  -0.0049136  )

   Crystallographic axes

     site n.     atom                  positions (cryst. coord.)
         1           Cu  tau(   1) = (  0.0000000  0.0000000 -0.2982161  )
         2           Cu  tau(   2) = (  0.3333333  0.0000000 -0.2982161  )
         3           Cu  tau(   3) = (  0.6666667  0.0000000 -0.2982161  )
         4           Cu  tau(   4) = (  0.0000000  0.3333333 -0.2982161  )
         5           Cu  tau(   5) = (  0.3333333  0.3333333 -0.2982161  )
         6           Cu  tau(   6) = (  0.6666667  0.3333333 -0.2982161  )
         7           Cu  tau(   7) = ( -0.0000000  0.6666667 -0.2982161  )
         8           Cu  tau(   8) = (  0.3333333  0.6666667 -0.2982161  )
         9           Cu  tau(   9) = (  0.6666667  0.6666667 -0.2982161  )
        10           Cu  tau(  10) = (  0.1111111  0.1111111 -0.1994054  )
        11           Cu  tau(  11) = (  0.4444444  0.1111111 -0.1994054  )
        12           Cu  tau(  12) = (  0.7777778  0.1111111 -0.1994054  )
        13           Cu  tau(  13) = (  0.1111111  0.4444444 -0.1994054  )
        14           Cu  tau(  14) = (  0.4444444  0.4444444 -0.1994054  )
        15           Cu  tau(  15) = (  0.7777778  0.4444444 -0.1994054  )
        16           Cu  tau(  16) = (  0.1111111  0.7777778 -0.1994054  )
        17           Cu  tau(  17) = (  0.4444444  0.7777778 -0.1994054  )
        18           Cu  tau(  18) = (  0.7777778  0.7777778 -0.1994054  )
        19           Cu  tau(  19) = ( -0.1111111  0.2222222 -0.1005946  )
        20           Cu  tau(  20) = (  0.2222222  0.2222222 -0.1005946  )
        21           Cu  tau(  21) = (  0.5555556  0.2222222 -0.1005946  )
        22           Cu  tau(  22) = ( -0.1111111  0.5555556 -0.1005946  )
        23           Cu  tau(  23) = (  0.2222222  0.5555556 -0.1005946  )
        24           Cu  tau(  24) = (  0.5555556  0.5555556 -0.1005946  )
        25           Cu  tau(  25) = ( -0.1111111  0.8888889 -0.1005946  )
        26           Cu  tau(  26) = (  0.2222222  0.8888889 -0.1005946  )
        27           Cu  tau(  27) = (  0.5555556  0.8888889 -0.1005946  )
        28           Cu  tau(  28) = (  0.0000000  0.0000000 -0.0017839  )
        29           Cu  tau(  29) = (  0.3333333  0.0000000 -0.0017839  )
        30           Cu  tau(  30) = (  0.6666667  0.0000000 -0.0017839  )
        31           Cu  tau(  31) = (  0.0000000  0.3333333 -0.0017839  )
        32           Cu  tau(  32) = (  0.3333333  0.3333333 -0.0017839  )
        33           Cu  tau(  33) = (  0.6666667  0.3333333 -0.0017839  )
        34           Cu  tau(  34) = ( -0.0000000  0.6666667 -0.0017839  )
        35           Cu  tau(  35) = (  0.3333333  0.6666667 -0.0017839  )
        36           Cu  tau(  36) = (  0.6666667  0.6666667 -0.0017839  )

     number of k points=    10  Marzari-Vanderbilt smearing, width (Ry)=  0.0073
                       cart. coord. in units 2pi/alat
        k(    1) = (   0.0000000   0.0000000   0.0000000), wk =   0.0312500
        k(    2) = (   0.0000000   0.1443376   0.0000000), wk =   0.1875000
        k(    3) = (   0.0000000   0.2886751   0.0000000), wk =   0.1875000
        k(    4) = (   0.0000000   0.4330127   0.0000000), wk =   0.1875000
        k(    5) = (   0.0000000  -0.5773503   0.0000000), wk =   0.0937500
        k(    6) = (   0.1250000   0.2165064   0.0000000), wk =   0.1875000
        k(    7) = (   0.1250000   0.3608439   0.0000000), wk =   0.3750000
        k(    8) = (   0.1250000  -0.6495191   0.0000000), wk =   0.3750000
        k(    9) = (   0.2500000  -0.7216878   0.0000000), wk =   0.1875000
[...]
     atom    5 type  1   force =    -0.00000000    0.00000000   74.46690697
     atom    6 type  1   force =     0.00000104    0.00000466   74.46690850
     atom    7 type  1   force =    -0.00000456   -0.00000143   74.46690850
     atom    8 type  1   force =     0.00000456   -0.00000143   74.46690850
     atom    9 type  1   force =    -0.00000000   -0.00000000   74.46691567
     atom   10 type  1   force =     0.00000270    0.00000156  221.57291738
     atom   11 type  1   force =    -0.00000000   -0.00000868  221.57293931
     atom   12 type  1   force =    -0.00000270    0.00000156  221.57291738
     atom   13 type  1   force =    -0.00000752    0.00000434  221.57293931
     atom   14 type  1   force =     0.00000752    0.00000434  221.57293931
     atom   15 type  1   force =    -0.00000000    0.00001218  221.57295406
     atom   16 type  1   force =    -0.00000000   -0.00000312  221.57291738
     atom   17 type  1   force =     0.00001055   -0.00000609  221.57295406
     atom   18 type  1   force =    -0.00001055   -0.00000609  221.57295406
     atom   19 type  1   force =     0.00000000    0.00001405  369.28811987
     atom   20 type  1   force =    -0.00000222   -0.00000128  369.28812634
     atom   21 type  1   force =     0.00000222   -0.00000128  369.28812634
     atom   22 type  1   force =    -0.00001370    0.00000791  369.28817140
     atom   23 type  1   force =    -0.00000000    0.00000256  369.28812634
     atom   24 type  1   force =     0.00001370    0.00000791  369.28817140
     atom   25 type  1   force =    -0.00001217   -0.00000703  369.28811987
     atom   26 type  1   force =     0.00001217   -0.00000703  369.28811987
     atom   27 type  1   force =    -0.00000000   -0.00001582  369.28817140
     atom   28 type  1   force =     0.00000000   -0.00000000  516.39800007
     atom   29 type  1   force =     0.00000498   -0.00001450  516.39804041
     atom   30 type  1   force =    -0.00000498   -0.00001450  516.39804041
     atom   31 type  1   force =    -0.00001007    0.00001156  516.39804041
     atom   32 type  1   force =    -0.00000000   -0.00000000  516.39802343
     atom   33 type  1   force =     0.00001007    0.00001156  516.39804041
     atom   34 type  1   force =    -0.00001505    0.00000294  516.39804041
     atom   35 type  1   force =     0.00001505    0.00000294  516.39804041
     atom   36 type  1   force =    -0.00000000   -0.00000000  516.39812088
     The local contribution  to forces
     atom    1 type  1   force =     0.00000000    0.00000000  -74.35781860
     atom    2 type  1   force =    -0.00000350    0.00000323  -74.35782373
     atom    3 type  1   force =     0.00000350    0.00000323  -74.35782373
     atom    4 type  1   force =     0.00000103   -0.00000465  -74.35782373
     atom    5 type  1   force =    -0.00000000   -0.00000000  -74.35782223
     atom    6 type  1   force =    -0.00000104   -0.00000465  -74.35782373
     atom    7 type  1   force =     0.00000455    0.00000142  -74.35782373
     atom    8 type  1   force =    -0.00000456    0.00000142  -74.35782373
     atom    9 type  1   force =    -0.00000000   -0.00000000  -74.35783087
     atom   10 type  1   force =    -0.00000268   -0.00000155 -221.54814118
     atom   11 type  1   force =    -0.00000000    0.00000868 -221.54816309
     atom   12 type  1   force =     0.00000268   -0.00000155 -221.54814118
     atom   13 type  1   force =     0.00000752   -0.00000435 -221.54816309
     atom   14 type  1   force =    -0.00000753   -0.00000435 -221.54816309
     atom   15 type  1   force =    -0.00000000   -0.00001214 -221.54817781
     atom   16 type  1   force =    -0.00000000    0.00000308 -221.54814118
     atom   17 type  1   force =    -0.00001051    0.00000606 -221.54817781
     atom   18 type  1   force =     0.00001052    0.00000606 -221.54817781
     atom   19 type  1   force =    -0.00000000   -0.00001398 -369.31303129
     atom   20 type  1   force =     0.00000224    0.00000129 -369.31303776
     atom   21 type  1   force =    -0.00000224    0.00000129 -369.31303776
     atom   22 type  1   force =     0.00001365   -0.00000788 -369.31308290
     atom   23 type  1   force =    -0.00000000   -0.00000257 -369.31303776
     atom   24 type  1   force =    -0.00001365   -0.00000788 -369.31308290
     atom   25 type  1   force =     0.00001212    0.00000700 -369.31303129
     atom   26 type  1   force =    -0.00001212    0.00000700 -369.31303129
     atom   27 type  1   force =    -0.00000000    0.00001577 -369.31308290
     atom   28 type  1   force =     0.00000000    0.00000000 -516.50730570
     atom   29 type  1   force =    -0.00000494    0.00001454 -516.50734628
     atom   30 type  1   force =     0.00000494    0.00001454 -516.50734628
     atom   31 type  1   force =     0.00001011   -0.00001156 -516.50734628
     atom   32 type  1   force =    -0.00000000   -0.00000000 -516.50732917
     atom   33 type  1   force =    -0.00001012   -0.00001156 -516.50734628
     atom   34 type  1   force =     0.00001507   -0.00000299 -516.50734628
     atom   35 type  1   force =    -0.00001508   -0.00000299 -516.50734628
     atom   36 type  1   force =    -0.00000000   -0.00000000 -516.50742729
     The core correction contribution to forces
     atom    1 type  1   force =     0.00000000    0.00000000    0.01667529
     atom    2 type  1   force =    -0.00000000    0.00000000    0.01667529
     atom    3 type  1   force =     0.00000000    0.00000000    0.01667529
     atom    4 type  1   force =     0.00000000   -0.00000000    0.01667529
     atom    5 type  1   force =    -0.00000000   -0.00000000    0.01667529
     atom    6 type  1   force =    -0.00000000   -0.00000000    0.01667529
     atom    7 type  1   force =     0.00000000    0.00000000    0.01667529
     atom    8 type  1   force =    -0.00000001    0.00000000    0.01667529
     atom    9 type  1   force =    -0.00000000   -0.00000000    0.01667528
     atom   10 type  1   force =    -0.00000000   -0.00000000   -0.00047739
     atom   11 type  1   force =    -0.00000000    0.00000001   -0.00047738
     atom   12 type  1   force =     0.00000000   -0.00000000   -0.00047739
     atom   13 type  1   force =     0.00000001   -0.00000001   -0.00047738
     atom   14 type  1   force =    -0.00000001   -0.00000001   -0.00047738
     atom   15 type  1   force =    -0.00000000   -0.00000001   -0.00047738
     atom   16 type  1   force =    -0.00000000   -0.00000000   -0.00047739
     atom   17 type  1   force =    -0.00000001    0.00000000   -0.00047738
     atom   18 type  1   force =     0.00000001    0.00000000   -0.00047738
     atom   19 type  1   force =    -0.00000000   -0.00000001    0.00044935
     atom   20 type  1   force =     0.00000000    0.00000000    0.00044935
     atom   21 type  1   force =    -0.00000000    0.00000000    0.00044935
     atom   22 type  1   force =     0.00000001   -0.00000001    0.00044934
     atom   23 type  1   force =    -0.00000000   -0.00000000    0.00044935
     atom   24 type  1   force =    -0.00000001   -0.00000001    0.00044934
     atom   25 type  1   force =     0.00000001    0.00000001    0.00044935
     atom   26 type  1   force =    -0.00000001    0.00000001    0.00044935
     atom   27 type  1   force =    -0.00000000    0.00000001    0.00044934
     atom   28 type  1   force =    -0.00000000   -0.00000000   -0.01664467
     atom   29 type  1   force =    -0.00000001    0.00000002   -0.01664466
     atom   30 type  1   force =     0.00000000    0.00000002   -0.01664466
     atom   31 type  1   force =     0.00000001   -0.00000001   -0.01664466
     atom   32 type  1   force =    -0.00000000   -0.00000000   -0.01664467
     atom   33 type  1   force =    -0.00000001   -0.00000001   -0.01664466
     atom   34 type  1   force =     0.00000002   -0.00000000   -0.01664466
     atom   35 type  1   force =    -0.00000002   -0.00000000   -0.01664466
     atom   36 type  1   force =    -0.00000000   -0.00000000   -0.01664466
     The Hubbard contrib.    to forces
     atom    1 type  1   force =     0.00000000    0.00000000    0.00000000
     atom    2 type  1   force =     0.00000000    0.00000000    0.00000000
     atom    3 type  1   force =     0.00000000    0.00000000    0.00000000
     atom    4 type  1   force =     0.00000000    0.00000000    0.00000000
     atom    5 type  1   force =     0.00000000    0.00000000    0.00000000
     atom    6 type  1   force =     0.00000000    0.00000000    0.00000000
     atom    7 type  1   force =     0.00000000    0.00000000    0.00000000
     atom    8 type  1   force =     0.00000000    0.00000000    0.00000000
     atom    9 type  1   force =     0.00000000    0.00000000    0.00000000
     atom   10 type  1   force =     0.00000000    0.00000000    0.00000000
     atom   11 type  1   force =     0.00000000    0.00000000    0.00000000
     atom   12 type  1   force =     0.00000000    0.00000000    0.00000000
     atom   13 type  1   force =     0.00000000    0.00000000    0.00000000
     atom   14 type  1   force =     0.00000000    0.00000000    0.00000000
     atom   15 type  1   force =     0.00000000    0.00000000    0.00000000
     atom   16 type  1   force =     0.00000000    0.00000000    0.00000000
     atom   17 type  1   force =     0.00000000    0.00000000    0.00000000
     atom   18 type  1   force =     0.00000000    0.00000000    0.00000000
     atom   19 type  1   force =     0.00000000    0.00000000    0.00000000
     atom   20 type  1   force =     0.00000000    0.00000000    0.00000000
     atom   21 type  1   force =     0.00000000    0.00000000    0.00000000
     atom   22 type  1   force =     0.00000000    0.00000000    0.00000000
     atom   23 type  1   force =     0.00000000    0.00000000    0.00000000
     atom   24 type  1   force =     0.00000000    0.00000000    0.00000000
     atom   25 type  1   force =     0.00000000    0.00000000    0.00000000
     atom   26 type  1   force =     0.00000000    0.00000000    0.00000000
     atom   27 type  1   force =     0.00000000    0.00000000    0.00000000
     atom   28 type  1   force =     0.00000000    0.00000000    0.00000000
     atom   29 type  1   force =     0.00000000    0.00000000    0.00000000
     atom   30 type  1   force =     0.00000000    0.00000000    0.00000000
     atom   31 type  1   force =     0.00000000    0.00000000    0.00000000
     atom   32 type  1   force =     0.00000000    0.00000000    0.00000000
     atom   33 type  1   force =     0.00000000    0.00000000    0.00000000
     atom   34 type  1   force =     0.00000000    0.00000000    0.00000000
     atom   35 type  1   force =     0.00000000    0.00000000    0.00000000
     atom   36 type  1   force =     0.00000000    0.00000000    0.00000000
     The SCF correction term to forces
     atom    1 type  1   force =     0.00000000    0.00000000    0.00000000
     atom    2 type  1   force =     0.00000000    0.00000000    0.00000000
     atom    3 type  1   force =     0.00000000    0.00000000    0.00000000
     atom    4 type  1   force =     0.00000000    0.00000000    0.00000000
     atom    5 type  1   force =     0.00000000    0.00000000    0.00000000
     atom    6 type  1   force =     0.00000000    0.00000000    0.00000000
     atom    7 type  1   force =     0.00000000    0.00000000    0.00000000
     atom    8 type  1   force =     0.00000000    0.00000000    0.00000000
     atom    9 type  1   force =     0.00000000    0.00000000    0.00000000
     atom   10 type  1   force =    -0.00000001   -0.00000000    0.00000011
     atom   11 type  1   force =    -0.00000000    0.00000003    0.00000008
     atom   12 type  1   force =     0.00000001   -0.00000000    0.00000011
     atom   13 type  1   force =     0.00000003   -0.00000002    0.00000008
     atom   14 type  1   force =    -0.00000003   -0.00000002    0.00000008
     atom   15 type  1   force =     0.00000000   -0.00000004    0.00000008
     atom   16 type  1   force =    -0.00000000    0.00000001    0.00000011
     atom   17 type  1   force =    -0.00000003    0.00000002    0.00000008
     atom   18 type  1   force =     0.00000003    0.00000002    0.00000008
     atom   19 type  1   force =    -0.00000000   -0.00000005   -0.00000015
     atom   20 type  1   force =    -0.00000001   -0.00000001   -0.00000017
     atom   21 type  1   force =     0.00000001   -0.00000001   -0.00000017
     atom   22 type  1   force =     0.00000003   -0.00000002   -0.00000015
     atom   23 type  1   force =     0.00000000    0.00000001   -0.00000017
     atom   24 type  1   force =    -0.00000003   -0.00000002   -0.00000015
     atom   25 type  1   force =     0.00000005    0.00000003   -0.00000015
     atom   26 type  1   force =    -0.00000005    0.00000003   -0.00000015
     atom   27 type  1   force =     0.00000000    0.00000003   -0.00000015
     atom   28 type  1   force =    -0.00000000   -0.00000000   -0.00000037
     atom   29 type  1   force =    -0.00000002    0.00000001   -0.00000035
     atom   30 type  1   force =     0.00000002    0.00000001   -0.00000035
     atom   31 type  1   force =    -0.00000001   -0.00000003   -0.00000035
     atom   32 type  1   force =    -0.00000000    0.00000000   -0.00000035
     atom   33 type  1   force =     0.00000001   -0.00000003   -0.00000035
     atom   34 type  1   force =     0.00000002    0.00000002   -0.00000035
     atom   35 type  1   force =    -0.00000002    0.00000002   -0.00000035
     atom   36 type  1   force =     0.00000000   -0.00000000   -0.00000032

     Total force =     0.000215     Total SCF correction =     0.000001
     Energy error            =      2.8E-07 Ry
     Gradient error          =      5.4E-05 Ry/Bohr

     bfgs converged in  18 scf cycles and  16 bfgs steps
     (criteria: energy <  7.3E-07 Ry, force <  3.9E-04 Ry/Bohr)

     End of BFGS Geometry Optimization

     Final energy             =   -7840.4404063267 Ry

     File tmp_1050/slab_1050.bfgs deleted, as requested
Begin final coordinates

ATOMIC_POSITIONS (angstrom)
Cu            0.0000000000        0.0000000000       -6.3579391979    0   0   0
Cu            2.5800910075       -0.0000000000       -6.3579391979    0   0   0
Cu            5.1601820151       -0.0000000000       -6.3579391979    0   0   0
Cu            1.2900455038        2.2344243566       -6.3579391979    0   0   0
Cu            3.8701365113        2.2344243566       -6.3579391979    0   0   0
Cu            6.4502275188        2.2344243566       -6.3579391979    0   0   0
Cu            2.5800910075        4.4688487132       -6.3579391979    0   0   0
Cu            5.1601820151        4.4688487132       -6.3579391979    0   0   0
Cu            7.7402730226        4.4688487132       -6.3579391979    0   0   0
Cu            1.2900455116        0.7448081234       -4.2686770313
Cu            3.8701365113        0.7448082119       -4.2686766873
Cu            6.4502275110        0.7448081234       -4.2686770313
Cu            2.5800910880        2.9792324290       -4.2686766873
Cu            5.1601819346        2.9792324290       -4.2686766873
Cu            7.7402730226        2.9792323602       -4.2686765018
Cu            3.8701365113        5.2136568231       -4.2686770313
Cu            6.4502274189        5.2136568898       -4.2686765018
Cu            9.0303186262        5.2136568898       -4.2686765018
Cu            0.0000000000        1.4896160798       -2.1779649202
Cu            2.5800910077        1.4896162378       -2.1779647700
Cu            5.1601820149        1.4896162378       -2.1779647700
Cu            1.2900455641        3.7240405595       -2.1779642288
Cu            3.8701365113        3.7240405940       -2.1779647700
Cu            6.4502274585        3.7240405595       -2.1779642288
Cu            2.5800911443        5.9584650299       -2.1779649202
Cu            5.1601818783        5.9584650299       -2.1779649202
Cu            7.7402730226        5.9584650206       -2.1779642288
Cu           -0.0000000000        0.0000000000       -0.0875499909
Cu            2.5800908112        0.0000003744       -0.0875491427
Cu            5.1601822114        0.0000003744       -0.0875491427
Cu            1.2900457299        2.2344239994       -0.0875491427
Cu            3.8701365113        2.2344243566       -0.0875495088
Cu            6.4502272927        2.2344239994       -0.0875491427
Cu            2.5800914299        4.4688486960       -0.0875491427
Cu            5.1601815927        4.4688486960       -0.0875491427
Cu            7.7402730226        4.4688487132       -0.0875475300
End final coordinates

     Writing all to output data dir tmp_1050/slab_1050.save/

     General routines

     Parallel routines

     PAW routines

   This run was terminated on:  12: 9:35   4Oct2024

   JOB DONE.