     Program PWSCF v.7.2 starts on  3Oct2024 at 13:11:28

     Reading input from slab_650.pwi
Warning: card &CELL ignored
Warning: card / ignored

     Current dimensions of program PWSCF are:
     Max number of different atomic species (ntypx) = 10
     Max number of k-points (npk) =  40000
     Max angular momentum in pseudopotentials (lmaxx) =  4
     file Cu.pbe-dn-kjpaw_psl.1.0.0.UPF: wavefunction(s)  4S 3D renormalized

     IMPORTANT: XC functional enforced from input :
     Exchange-correlation= BEEF-VDW
                           (   1   4  43  14   2   0   0)
     Any further DFT definition will be discarded
     Please, verify this is what you really want

     Found identity + (  0.3333  0.0000  0.0000) symmetry
     This is a supercell, fractional translations are disabled
     Message from routine setup:
     using ibrav=0 with symmetry is DISCOURAGED, use correct ibrav instead

     R & G space division:  proc/nbgrp/npool/nimage =      64
     Subspace diagonalization in iterative solution of the eigenvalue problem:
     one sub-group per band group will be used

     Using Slab Decomposition

     Title:
     slab_650

     bravais-lattice index     =            0
     lattice parameter (alat)  =      14.5487  a.u.
     unit-cell volume          =    7373.4901 (a.u.)^3
     number of atoms/cell      =           36
     number of atomic types    =            1
     number of electrons       =       396.00
     number of Kohn-Sham states=          238
     kinetic-energy cutoff     =      47.7741  Ry
     charge density cutoff     =     477.7412  Ry
     scf convergence threshold =      7.3E-12
     mixing beta               =       0.3333
     number of iterations used =           12  plain     mixing
     energy convergence thresh.=      7.3E-07
     force convergence thresh. =      3.9E-04
     Exchange-correlation= BEEF-VDW
                           (   1   4  43  14   2   0   0)
     nstep                     =           50

     Effective Screening Medium Method
     Boundary Conditions: Vacuum-Slab-Metal
     total charge in unit cell        =   0.0000
     grid points for fit at edges     =        4

     celldm(1)=  14.548694  celldm(2)=   0.000000  celldm(3)=   0.000000
     celldm(4)=   0.000000  celldm(5)=   0.000000  celldm(6)=   0.000000

     crystal axes: (cart. coord. in units of alat)
               a(1) = (   1.000000   0.000000   0.000000 )
               a(2) = (   0.500000   0.866025   0.000000 )
               a(3) = (   0.000000   0.000000   2.764843 )

     reciprocal axes: (cart. coord. in units 2 pi/alat)
               b(1) = (  1.000000 -0.577350  0.000000 )
               b(2) = (  0.000000  1.154701  0.000000 )
               b(3) = (  0.000000  0.000000  0.361684 )

     PseudoPot. # 1 for Cu read from file:
     /home/k0227/k022716/QE/pseudo/Cu.pbe-dn-kjpaw_psl.1.0.0.UPF
     MD5 check sum: 67c40f9e1593dc2d139023e70404cc2a
     Pseudo is Projector augmented-wave + core cor, Zval = 11.0
     Generated using "atomic" code by A. Dal Corso  v.6.1 svn rev. 13369
     Shape of augmentation charge: PSQ
     Using radial grid of 1199 points,  6 beta functions with:
                l(1) =   0
                l(2) =   0
                l(3) =   1
                l(4) =   1
                l(5) =   2
                l(6) =   2
     Q(r) pseudized with 0 coefficients

     atomic species   valence    mass     pseudopotential
        Cu            11.00    63.54600     Cu( 1.00)

      6 Sym. Ops. (no inversion) found

                                    s                        frac. trans.

      isym =  1     identity

 cryst.   s( 1) = (     1          0          0      )
                  (     0          1          0      )
                  (     0          0          1      )

 cart.    s( 1) = (  1.0000000  0.0000000  0.0000000 )
                  (  0.0000000  1.0000000  0.0000000 )
                  (  0.0000000  0.0000000  1.0000000 )

      isym =  2     120 deg rotation - cryst. axis [0,0,1]

[...]

      isym =  3     120 deg rotation - cryst. axis [0,0,-1]

[...]

      isym =  4     inv. 180 deg rotation - cart. axis [1,0,0]

[...]

      isym =  5     inv. 180 deg rotation - cryst. axis [0,1,0]

[...]

      isym =  6     inv. 180 deg rotation - cryst. axis [1,1,0]

 cryst.   s( 6) = (     1         -1          0      )
                  (     0         -1          0      )
                  (     0          0          1      )

 cart.    s( 6) = (  0.5000000 -0.8660254  0.0000000 )
                  ( -0.8660254 -0.5000000  0.0000000 )
                  (  0.0000000  0.0000000  1.0000000 )

   Cartesian axes

     site n.     atom                  positions (alat units)
         1           Cu  tau(   1) = (   0.0000000   0.0000000  -0.8229747  )
         2           Cu  tau(   2) = (   0.3333333   0.0000000  -0.8229747  )
         3           Cu  tau(   3) = (   0.6666667   0.0000000  -0.8229747  )
         4           Cu  tau(   4) = (   0.1666667   0.2886751  -0.8229747  )
         5           Cu  tau(   5) = (   0.5000000   0.2886751  -0.8229747  )
         6           Cu  tau(   6) = (   0.8333333   0.2886751  -0.8229747  )
         7           Cu  tau(   7) = (   0.3333333   0.5773503  -0.8229747  )
         8           Cu  tau(   8) = (   0.6666667   0.5773503  -0.8229747  )
         9           Cu  tau(   9) = (   1.0000000   0.5773503  -0.8229747  )
        10           Cu  tau(  10) = (   0.1666667   0.0962250  -0.5508092  )
        11           Cu  tau(  11) = (   0.5000000   0.0962250  -0.5508092  )
        12           Cu  tau(  12) = (   0.8333333   0.0962250  -0.5508092  )
        13           Cu  tau(  13) = (   0.3333333   0.3849002  -0.5508092  )
        14           Cu  tau(  14) = (   0.6666667   0.3849002  -0.5508092  )
        15           Cu  tau(  15) = (   1.0000000   0.3849002  -0.5508092  )
        16           Cu  tau(  16) = (   0.5000000   0.6735753  -0.5508092  )
        17           Cu  tau(  17) = (   0.8333333   0.6735753  -0.5508092  )
        18           Cu  tau(  18) = (   1.1666667   0.6735753  -0.5508092  )
        19           Cu  tau(  19) = (   0.0000000   0.1924501  -0.2786436  )
        20           Cu  tau(  20) = (   0.3333333   0.1924501  -0.2786436  )
        21           Cu  tau(  21) = (   0.6666667   0.1924501  -0.2786436  )
        22           Cu  tau(  22) = (   0.1666667   0.4811252  -0.2786436  )
        23           Cu  tau(  23) = (   0.5000000   0.4811252  -0.2786436  )
        24           Cu  tau(  24) = (   0.8333333   0.4811252  -0.2786436  )
        25           Cu  tau(  25) = (   0.3333333   0.7698004  -0.2786436  )
        26           Cu  tau(  26) = (   0.6666667   0.7698004  -0.2786436  )
        27           Cu  tau(  27) = (   1.0000000   0.7698004  -0.2786436  )
        28           Cu  tau(  28) = (   0.0000000   0.0000000  -0.0064781  )
        29           Cu  tau(  29) = (   0.3333333   0.0000000  -0.0064781  )
        30           Cu  tau(  30) = (   0.6666667   0.0000000  -0.0064781  )
        31           Cu  tau(  31) = (   0.1666667   0.2886751  -0.0064781  )
        32           Cu  tau(  32) = (   0.5000000   0.2886751  -0.0064781  )
        33           Cu  tau(  33) = (   0.8333333   0.2886751  -0.0064781  )
        34           Cu  tau(  34) = (   0.3333333   0.5773503  -0.0064781  )
        35           Cu  tau(  35) = (   0.6666667   0.5773503  -0.0064781  )
        36           Cu  tau(  36) = (   1.0000000   0.5773503  -0.0064781  )

   Crystallographic axes

     site n.     atom                  positions (cryst. coord.)
         1           Cu  tau(   1) = (  0.0000000  0.0000000 -0.2976570  )
         2           Cu  tau(   2) = (  0.3333333  0.0000000 -0.2976570  )
         3           Cu  tau(   3) = (  0.6666667  0.0000000 -0.2976570  )
         4           Cu  tau(   4) = ( -0.0000000  0.3333333 -0.2976570  )
         5           Cu  tau(   5) = (  0.3333333  0.3333333 -0.2976570  )
         6           Cu  tau(   6) = (  0.6666667  0.3333333 -0.2976570  )
         7           Cu  tau(   7) = (  0.0000000  0.6666667 -0.2976570  )
         8           Cu  tau(   8) = (  0.3333333  0.6666667 -0.2976570  )
         9           Cu  tau(   9) = (  0.6666667  0.6666667 -0.2976570  )
        10           Cu  tau(  10) = (  0.1111111  0.1111111 -0.1992190  )
        11           Cu  tau(  11) = (  0.4444444  0.1111111 -0.1992190  )
        12           Cu  tau(  12) = (  0.7777778  0.1111111 -0.1992190  )
        13           Cu  tau(  13) = (  0.1111111  0.4444444 -0.1992190  )
        14           Cu  tau(  14) = (  0.4444444  0.4444444 -0.1992190  )
        15           Cu  tau(  15) = (  0.7777778  0.4444444 -0.1992190  )
        16           Cu  tau(  16) = (  0.1111111  0.7777778 -0.1992190  )
        17           Cu  tau(  17) = (  0.4444444  0.7777778 -0.1992190  )
        18           Cu  tau(  18) = (  0.7777778  0.7777778 -0.1992190  )
        19           Cu  tau(  19) = ( -0.1111111  0.2222222 -0.1007810  )
        20           Cu  tau(  20) = (  0.2222222  0.2222222 -0.1007810  )
        21           Cu  tau(  21) = (  0.5555556  0.2222222 -0.1007810  )
        22           Cu  tau(  22) = ( -0.1111111  0.5555556 -0.1007810  )
        23           Cu  tau(  23) = (  0.2222222  0.5555556 -0.1007810  )
        24           Cu  tau(  24) = (  0.5555556  0.5555556 -0.1007810  )
        25           Cu  tau(  25) = ( -0.1111111  0.8888889 -0.1007810  )
        26           Cu  tau(  26) = (  0.2222222  0.8888889 -0.1007810  )
        27           Cu  tau(  27) = (  0.5555556  0.8888889 -0.1007810  )
        28           Cu  tau(  28) = (  0.0000000  0.0000000 -0.0023430  )
        29           Cu  tau(  29) = (  0.3333333  0.0000000 -0.0023430  )
        30           Cu  tau(  30) = (  0.6666667  0.0000000 -0.0023430  )
        31           Cu  tau(  31) = ( -0.0000000  0.3333333 -0.0023430  )
        32           Cu  tau(  32) = (  0.3333333  0.3333333 -0.0023430  )
        33           Cu  tau(  33) = (  0.6666667  0.3333333 -0.0023430  )
        34           Cu  tau(  34) = (  0.0000000  0.6666667 -0.0023430  )
        35           Cu  tau(  35) = (  0.3333333  0.6666667 -0.0023430  )
        36           Cu  tau(  36) = (  0.6666667  0.6666667 -0.0023430  )

     number of k points=    10  Marzari-Vanderbilt smearing, width (Ry)=  0.0073
                       cart. coord. in units 2pi/alat
        k(    1) = (   0.0000000   0.0000000   0.0000000), wk =   0.0312500
        k(    2) = (   0.0000000   0.1443376   0.0000000), wk =   0.1875000
        k(    3) = (   0.0000000   0.2886751   0.0000000), wk =   0.1875000
        k(    4) = (   0.0000000   0.4330127   0.0000000), wk =   0.1875000
        k(    5) = (   0.0000000  -0.5773503   0.0000000), wk =   0.0937500
        k(    6) = (   0.1250000   0.2165064   0.0000000), wk =   0.1875000
        k(    7) = (   0.1250000   0.3608439   0.0000000), wk =   0.3750000
        k(    8) = (   0.1250000  -0.6495191   0.0000000), wk =   0.3750000
        k(    9) = (   0.2500000  -0.7216878   0.0000000), wk =   0.1875000
[...]
     atom    5 type  1   force =     0.00000000   -0.00000000   75.24270675
     atom    6 type  1   force =     0.00000103   -0.00000081   75.24270911
     atom    7 type  1   force =     0.00000019    0.00000129   75.24270910
     atom    8 type  1   force =    -0.00000019    0.00000129   75.24270910
     atom    9 type  1   force =    -0.00000000    0.00000000   75.24270893
     atom   10 type  1   force =    -0.00000270   -0.00000156  223.96352110
     atom   11 type  1   force =    -0.00000000   -0.00000362  223.96351099
     atom   12 type  1   force =     0.00000270   -0.00000156  223.96352110
     atom   13 type  1   force =    -0.00000313    0.00000181  223.96351099
     atom   14 type  1   force =     0.00000313    0.00000181  223.96351099
     atom   15 type  1   force =    -0.00000000   -0.00000035  223.96351624
     atom   16 type  1   force =     0.00000000    0.00000312  223.96352110
     atom   17 type  1   force =    -0.00000030    0.00000018  223.96351624
     atom   18 type  1   force =     0.00000030    0.00000018  223.96351624
     atom   19 type  1   force =     0.00000000    0.00000169  373.27013320
     atom   20 type  1   force =    -0.00000160   -0.00000092  373.27012124
     atom   21 type  1   force =     0.00000160   -0.00000092  373.27012124
     atom   22 type  1   force =    -0.00000347    0.00000200  373.27012741
     atom   23 type  1   force =     0.00000000    0.00000185  373.27012124
     atom   24 type  1   force =     0.00000347    0.00000200  373.27012741
     atom   25 type  1   force =    -0.00000146   -0.00000084  373.27013320
     atom   26 type  1   force =     0.00000146   -0.00000084  373.27013320
     atom   27 type  1   force =    -0.00000000   -0.00000401  373.27012741
     atom   28 type  1   force =     0.00000000   -0.00000000  522.00417209
     atom   29 type  1   force =     0.00000441   -0.00000150  522.00416169
     atom   30 type  1   force =    -0.00000441   -0.00000150  522.00416170
     atom   31 type  1   force =     0.00000090    0.00000457  522.00416169
     atom   32 type  1   force =    -0.00000000   -0.00000000  522.00415188
     atom   33 type  1   force =    -0.00000090    0.00000457  522.00416169
     atom   34 type  1   force =    -0.00000351   -0.00000307  522.00416169
     atom   35 type  1   force =     0.00000351   -0.00000307  522.00416169
     atom   36 type  1   force =    -0.00000000    0.00000000  522.00416406
     The local contribution  to forces
     atom    1 type  1   force =     0.00000000   -0.00000000  -75.13923355
     atom    2 type  1   force =     0.00000120    0.00000051  -75.13923156
     atom    3 type  1   force =    -0.00000121    0.00000051  -75.13923156
     atom    4 type  1   force =     0.00000104    0.00000078  -75.13923156
     atom    5 type  1   force =    -0.00000000   -0.00000001  -75.13922921
     atom    6 type  1   force =    -0.00000105    0.00000078  -75.13923156
     atom    7 type  1   force =    -0.00000017   -0.00000129  -75.13923156
     atom    8 type  1   force =     0.00000016   -0.00000129  -75.13923156
     atom    9 type  1   force =    -0.00000001    0.00000001  -75.13923137
     atom   10 type  1   force =     0.00000271    0.00000157 -223.93898131
     atom   11 type  1   force =    -0.00000000    0.00000363 -223.93897120
     atom   12 type  1   force =    -0.00000272    0.00000157 -223.93898131
     atom   13 type  1   force =     0.00000314   -0.00000182 -223.93897120
     atom   14 type  1   force =    -0.00000315   -0.00000182 -223.93897120
     atom   15 type  1   force =    -0.00000001    0.00000035 -223.93897641
     atom   16 type  1   force =    -0.00000000   -0.00000313 -223.93898131
     atom   17 type  1   force =     0.00000030   -0.00000017 -223.93897641
     atom   18 type  1   force =    -0.00000031   -0.00000017 -223.93897641
     atom   19 type  1   force =    -0.00000000   -0.00000165 -373.29474853
     atom   20 type  1   force =     0.00000161    0.00000094 -373.29473654
     atom   21 type  1   force =    -0.00000161    0.00000094 -373.29473654
     atom   22 type  1   force =     0.00000346   -0.00000200 -373.29474272
     atom   23 type  1   force =    -0.00000000   -0.00000186 -373.29473654
     atom   24 type  1   force =    -0.00000346   -0.00000200 -373.29474272
     atom   25 type  1   force =     0.00000144    0.00000082 -373.29474853
     atom   26 type  1   force =    -0.00000144    0.00000082 -373.29474853
     atom   27 type  1   force =    -0.00000001    0.00000399 -373.29474272
     atom   28 type  1   force =     0.00000000    0.00000000 -522.10794651
     atom   29 type  1   force =    -0.00000441    0.00000151 -522.10793612
     atom   30 type  1   force =     0.00000441    0.00000151 -522.10793612
     atom   31 type  1   force =    -0.00000089   -0.00000458 -522.10793612
     atom   32 type  1   force =    -0.00000000   -0.00000001 -522.10792627
     atom   33 type  1   force =     0.00000089   -0.00000458 -522.10793612
     atom   34 type  1   force =     0.00000351    0.00000307 -522.10793612
     atom   35 type  1   force =    -0.00000352    0.00000307 -522.10793612
     atom   36 type  1   force =    -0.00000001    0.00000001 -522.10793856
     The core correction contribution to forces
     atom    1 type  1   force =     0.00000000    0.00000000    0.01652165
     atom    2 type  1   force =     0.00000000   -0.00000000    0.01652165
     atom    3 type  1   force =    -0.00000000   -0.00000000    0.01652165
     atom    4 type  1   force =     0.00000000    0.00000000    0.01652165
     atom    5 type  1   force =    -0.00000000   -0.00000000    0.01652166
     atom    6 type  1   force =    -0.00000000    0.00000000    0.01652165
     atom    7 type  1   force =    -0.00000000    0.00000000    0.01652165
     atom    8 type  1   force =     0.00000000    0.00000000    0.01652165
     atom    9 type  1   force =    -0.00000000    0.00000000    0.01652166
     atom   10 type  1   force =     0.00000000    0.00000000   -0.00048078
     atom   11 type  1   force =    -0.00000000    0.00000000   -0.00048078
     atom   12 type  1   force =    -0.00000000    0.00000000   -0.00048078
     atom   13 type  1   force =     0.00000000   -0.00000000   -0.00048078
     atom   14 type  1   force =    -0.00000000   -0.00000000   -0.00048078
     atom   15 type  1   force =    -0.00000000    0.00000000   -0.00048078
     atom   16 type  1   force =    -0.00000000   -0.00000000   -0.00048078
     atom   17 type  1   force =     0.00000000    0.00000000   -0.00048078
     atom   18 type  1   force =    -0.00000000    0.00000000   -0.00048078
     atom   19 type  1   force =    -0.00000000   -0.00000000    0.00037096
     atom   20 type  1   force =     0.00000000    0.00000000    0.00037095
     atom   21 type  1   force =    -0.00000000    0.00000000    0.00037095
     atom   22 type  1   force =     0.00000000   -0.00000000    0.00037096
     atom   23 type  1   force =    -0.00000000   -0.00000000    0.00037095
     atom   24 type  1   force =    -0.00000000   -0.00000000    0.00037096
     atom   25 type  1   force =     0.00000000   -0.00000000    0.00037096
     atom   26 type  1   force =    -0.00000000   -0.00000000    0.00037096
     atom   27 type  1   force =    -0.00000000    0.00000000    0.00037096
     atom   28 type  1   force =     0.00000000    0.00000000   -0.01638988
     atom   29 type  1   force =    -0.00000001    0.00000000   -0.01638987
     atom   30 type  1   force =     0.00000000    0.00000000   -0.01638987
     atom   31 type  1   force =    -0.00000000   -0.00000001   -0.01638987
     atom   32 type  1   force =    -0.00000000   -0.00000000   -0.01638987
     atom   33 type  1   force =     0.00000000   -0.00000001   -0.01638987
     atom   34 type  1   force =     0.00000000    0.00000001   -0.01638987
     atom   35 type  1   force =    -0.00000000    0.00000001   -0.01638987
     atom   36 type  1   force =    -0.00000000    0.00000000   -0.01638987
     The Hubbard contrib.    to forces
     atom    1 type  1   force =     0.00000000    0.00000000    0.00000000
     atom    2 type  1   force =     0.00000000    0.00000000    0.00000000
     atom    3 type  1   force =     0.00000000    0.00000000    0.00000000
     atom    4 type  1   force =     0.00000000    0.00000000    0.00000000
     atom    5 type  1   force =     0.00000000    0.00000000    0.00000000
     atom    6 type  1   force =     0.00000000    0.00000000    0.00000000
     atom    7 type  1   force =     0.00000000    0.00000000    0.00000000
     atom    8 type  1   force =     0.00000000    0.00000000    0.00000000
     atom    9 type  1   force =     0.00000000    0.00000000    0.00000000
     atom   10 type  1   force =     0.00000000    0.00000000    0.00000000
     atom   11 type  1   force =     0.00000000    0.00000000    0.00000000
     atom   12 type  1   force =     0.00000000    0.00000000    0.00000000
     atom   13 type  1   force =     0.00000000    0.00000000    0.00000000
     atom   14 type  1   force =     0.00000000    0.00000000    0.00000000
     atom   15 type  1   force =     0.00000000    0.00000000    0.00000000
     atom   16 type  1   force =     0.00000000    0.00000000    0.00000000
     atom   17 type  1   force =     0.00000000    0.00000000    0.00000000
     atom   18 type  1   force =     0.00000000    0.00000000    0.00000000
     atom   19 type  1   force =     0.00000000    0.00000000    0.00000000
     atom   20 type  1   force =     0.00000000    0.00000000    0.00000000
     atom   21 type  1   force =     0.00000000    0.00000000    0.00000000
     atom   22 type  1   force =     0.00000000    0.00000000    0.00000000
     atom   23 type  1   force =     0.00000000    0.00000000    0.00000000
     atom   24 type  1   force =     0.00000000    0.00000000    0.00000000
     atom   25 type  1   force =     0.00000000    0.00000000    0.00000000
     atom   26 type  1   force =     0.00000000    0.00000000    0.00000000
     atom   27 type  1   force =     0.00000000    0.00000000    0.00000000
     atom   28 type  1   force =     0.00000000    0.00000000    0.00000000
     atom   29 type  1   force =     0.00000000    0.00000000    0.00000000
     atom   30 type  1   force =     0.00000000    0.00000000    0.00000000
     atom   31 type  1   force =     0.00000000    0.00000000    0.00000000
     atom   32 type  1   force =     0.00000000    0.00000000    0.00000000
     atom   33 type  1   force =     0.00000000    0.00000000    0.00000000
     atom   34 type  1   force =     0.00000000    0.00000000    0.00000000
     atom   35 type  1   force =     0.00000000    0.00000000    0.00000000
     atom   36 type  1   force =     0.00000000    0.00000000    0.00000000
     The SCF correction term to forces
     atom    1 type  1   force =     0.00000000    0.00000000    0.00000000
     atom    2 type  1   force =     0.00000000    0.00000000    0.00000000
     atom    3 type  1   force =     0.00000000    0.00000000    0.00000000
     atom    4 type  1   force =     0.00000000    0.00000000    0.00000000
     atom    5 type  1   force =     0.00000000    0.00000000    0.00000000
     atom    6 type  1   force =     0.00000000    0.00000000    0.00000000
     atom    7 type  1   force =     0.00000000    0.00000000    0.00000000
     atom    8 type  1   force =     0.00000000    0.00000000    0.00000000
     atom    9 type  1   force =     0.00000000    0.00000000    0.00000000
     atom   10 type  1   force =     0.00000000    0.00000000    0.00000025
     atom   11 type  1   force =     0.00000000   -0.00000001    0.00000024
     atom   12 type  1   force =    -0.00000000    0.00000000    0.00000025
     atom   13 type  1   force =    -0.00000001    0.00000000    0.00000024
     atom   14 type  1   force =     0.00000001    0.00000000    0.00000024
     atom   15 type  1   force =    -0.00000000    0.00000001    0.00000021
     atom   16 type  1   force =    -0.00000000   -0.00000000    0.00000025
     atom   17 type  1   force =     0.00000001   -0.00000000    0.00000021
     atom   18 type  1   force =    -0.00000001   -0.00000000    0.00000021
     atom   19 type  1   force =     0.00000000   -0.00000002    0.00000014
     atom   20 type  1   force =    -0.00000001   -0.00000000    0.00000013
     atom   21 type  1   force =     0.00000001   -0.00000000    0.00000013
     atom   22 type  1   force =     0.00000002   -0.00000001    0.00000014
     atom   23 type  1   force =    -0.00000000    0.00000001    0.00000013
     atom   24 type  1   force =    -0.00000002   -0.00000001    0.00000014
     atom   25 type  1   force =     0.00000002    0.00000001    0.00000014
     atom   26 type  1   force =    -0.00000002    0.00000001    0.00000014
     atom   27 type  1   force =    -0.00000000    0.00000002    0.00000014
     atom   28 type  1   force =    -0.00000000    0.00000000    0.00000013
     atom   29 type  1   force =    -0.00000002   -0.00000001    0.00000013
     atom   30 type  1   force =     0.00000002   -0.00000001    0.00000013
     atom   31 type  1   force =    -0.00000001   -0.00000001    0.00000013
     atom   32 type  1   force =    -0.00000000    0.00000000    0.00000012
     atom   33 type  1   force =     0.00000001   -0.00000001    0.00000013
     atom   34 type  1   force =     0.00000000    0.00000002    0.00000013
     atom   35 type  1   force =    -0.00000000    0.00000002    0.00000013
     atom   36 type  1   force =    -0.00000000    0.00000000    0.00000016

     Total force =     0.000801     Total SCF correction =     0.000001
     Energy error            =      3.9E-07 Ry
     Gradient error          =      2.0E-04 Ry/Bohr

     bfgs converged in   9 scf cycles and   8 bfgs steps
     (criteria: energy <  7.3E-07 Ry, force <  3.9E-04 Ry/Bohr)

     End of BFGS Geometry Optimization

     Final energy             =   -7840.3757964645 Ry

     File ./tmp/slab_650.bfgs deleted, as requested
Begin final coordinates

ATOMIC_POSITIONS (angstrom)
Cu            0.0000000000        0.0000000000       -6.3359483521    0   0   0
Cu            2.5662791226        0.0000000000       -6.3359483521    0   0   0
Cu            5.1325582452        0.0000000000       -6.3359483521    0   0   0
Cu            1.2831395613        2.2224629134       -6.3359483521    0   0   0
Cu            3.8494186839        2.2224629134       -6.3359483521    0   0   0
Cu            6.4156978065        2.2224629134       -6.3359483521    0   0   0
Cu            2.5662791226        4.4449258267       -6.3359483521    0   0   0
Cu            5.1325582452        4.4449258267       -6.3359483521    0   0   0
Cu            7.6988373678        4.4449258267       -6.3359483521    0   0   0
Cu            1.2831395898        0.7408209876       -4.2412124665
Cu            3.8494186839        0.7408210246       -4.2412126277
Cu            6.4156977780        0.7408209876       -4.2412124665
Cu            2.5662791690        2.9632838577       -4.2412126277
Cu            5.1325581988        2.9632838577       -4.2412126277
Cu            7.6988373678        2.9632838975       -4.2412125789
Cu            3.8494186839        5.1857467649       -4.2412124665
Cu            6.4156978178        5.1857467913       -4.2412125789
Cu            8.9819769178        5.1857467913       -4.2412125789
Cu            0.0000000000        1.4816419212       -2.1445313716
Cu            2.5662791517        1.4816419590       -2.1445315910
Cu            5.1325582161        1.4816419590       -2.1445315910
Cu            1.2831396228        3.7041048201       -2.1445315006
Cu            3.8494186839        3.7041048220       -2.1445315910
Cu            6.4156977450        3.7041048201       -2.1445315006
Cu            2.5662791407        5.9265677795       -2.1445313716
Cu            5.1325582271        5.9265677795       -2.1445313716
Cu            7.6988373678        5.9265678400       -2.1445315006
Cu           -0.0000000000        0.0000000000       -0.0457245790
Cu            2.5662790393        0.0000000433       -0.0457247568
Cu            5.1325583285        0.0000000433       -0.0457247568
Cu            1.2831395571        2.2224628196       -0.0457247568
Cu            3.8494186839        2.2224629134       -0.0457249545
Cu            6.4156978107        2.2224628196       -0.0457247568
Cu            2.5662792017        4.4449258772       -0.0457247568
Cu            5.1325581661        4.4449258772       -0.0457247568
Cu            7.6988373678        4.4449258267       -0.0457246789
End final coordinates

     Writing all to output data dir ./tmp/slab_650.save/

     General routines

     Parallel routines

     PAW routines

   This run was terminated on:  13:57: 5   3Oct2024

   JOB DONE.