     Program PWSCF v.7.2 starts on  4Oct2024 at  8:54: 7

     Reading input from slab_1200.pwi
Warning: card &CELL ignored
Warning: card / ignored

     Current dimensions of program PWSCF are:
     Max number of different atomic species (ntypx) = 10
     Max number of k-points (npk) =  40000
     Max angular momentum in pseudopotentials (lmaxx) =  4
     file Cu.pbe-dn-kjpaw_psl.1.0.0.UPF: wavefunction(s)  4S 3D renormalized

     IMPORTANT: XC functional enforced from input :
     Exchange-correlation= BEEF-VDW
                           (   1   4  43  14   2   0   0)
     Any further DFT definition will be discarded
     Please, verify this is what you really want

     Found identity + (  0.3333  0.0000  0.0000) symmetry
     This is a supercell, fractional translations are disabled
     Message from routine setup:
     using ibrav=0 with symmetry is DISCOURAGED, use correct ibrav instead

     R & G space division:  proc/nbgrp/npool/nimage =      64
     Subspace diagonalization in iterative solution of the eigenvalue problem:
     one sub-group per band group will be used

     Using Slab Decomposition

     Title:
     slab_1200

     bravais-lattice index     =            0
     lattice parameter (alat)  =      14.6366  a.u.
     unit-cell volume          =    7476.2210 (a.u.)^3
     number of atoms/cell      =           36
     number of atomic types    =            1
     number of electrons       =       396.00
     number of Kohn-Sham states=          238
     kinetic-energy cutoff     =      88.1984  Ry
     charge density cutoff     =     881.9837  Ry
     scf convergence threshold =      7.3E-12
     mixing beta               =       0.3333
     number of iterations used =           12  plain     mixing
     energy convergence thresh.=      7.3E-07
     force convergence thresh. =      3.9E-04
     Exchange-correlation= BEEF-VDW
                           (   1   4  43  14   2   0   0)
     nstep                     =           50

     Effective Screening Medium Method
     Boundary Conditions: Vacuum-Slab-Metal
     total charge in unit cell        =   0.0000
     grid points for fit at edges     =        4

     celldm(1)=  14.636635  celldm(2)=   0.000000  celldm(3)=   0.000000
     celldm(4)=   0.000000  celldm(5)=   0.000000  celldm(6)=   0.000000

     crystal axes: (cart. coord. in units of alat)
               a(1) = (   1.000000   0.000000   0.000000 )
               a(2) = (   0.500000   0.866025   0.000000 )
               a(3) = (   0.000000   0.000000   2.753136 )

     reciprocal axes: (cart. coord. in units 2 pi/alat)
               b(1) = (  1.000000 -0.577350  0.000000 )
               b(2) = (  0.000000  1.154701  0.000000 )
               b(3) = (  0.000000  0.000000  0.363222 )

     PseudoPot. # 1 for Cu read from file:
     /home/k0227/k022716/QE/pseudo/Cu.pbe-dn-kjpaw_psl.1.0.0.UPF
     MD5 check sum: 67c40f9e1593dc2d139023e70404cc2a
     Pseudo is Projector augmented-wave + core cor, Zval = 11.0
     Generated using "atomic" code by A. Dal Corso  v.6.1 svn rev. 13369
     Shape of augmentation charge: PSQ
     Using radial grid of 1199 points,  6 beta functions with:
                l(1) =   0
                l(2) =   0
                l(3) =   1
                l(4) =   1
                l(5) =   2
                l(6) =   2
     Q(r) pseudized with 0 coefficients

     atomic species   valence    mass     pseudopotential
        Cu            11.00    63.54600     Cu( 1.00)

      6 Sym. Ops. (no inversion) found

                                    s                        frac. trans.

      isym =  1     identity

 cryst.   s( 1) = (     1          0          0      )
                  (     0          1          0      )
                  (     0          0          1      )

 cart.    s( 1) = (  1.0000000  0.0000000  0.0000000 )
                  (  0.0000000  1.0000000  0.0000000 )
                  (  0.0000000  0.0000000  1.0000000 )

      isym =  2     120 deg rotation - cryst. axis [0,0,1]

[...]

      isym =  3     120 deg rotation - cryst. axis [0,0,-1]

[...]

      isym =  4     inv. 180 deg rotation - cart. axis [1,0,0]

[...]

      isym =  5     inv. 180 deg rotation - cryst. axis [0,1,0]

[...]

      isym =  6     inv. 180 deg rotation - cryst. axis [1,1,0]

 cryst.   s( 6) = (     1         -1          0      )
                  (     0         -1          0      )
                  (     0          0          1      )

 cart.    s( 6) = (  0.5000000 -0.8660254  0.0000000 )
                  ( -0.8660254 -0.5000000  0.0000000 )
                  (  0.0000000  0.0000000  1.0000000 )

   Cartesian axes

     site n.     atom                  positions (alat units)
         1           Cu  tau(   1) = (   0.0000000   0.0000000  -0.8212188  )
         2           Cu  tau(   2) = (   0.3333333   0.0000000  -0.8212188  )
         3           Cu  tau(   3) = (   0.6666667   0.0000000  -0.8212188  )
         4           Cu  tau(   4) = (   0.1666667   0.2886751  -0.8212188  )
         5           Cu  tau(   5) = (   0.5000000   0.2886751  -0.8212188  )
         6           Cu  tau(   6) = (   0.8333333   0.2886751  -0.8212188  )
         7           Cu  tau(   7) = (   0.3333333   0.5773503  -0.8212188  )
         8           Cu  tau(   8) = (   0.6666667   0.5773503  -0.8212188  )
         9           Cu  tau(   9) = (   1.0000000   0.5773503  -0.8212188  )
        10           Cu  tau(  10) = (   0.1666667   0.0962250  -0.5490532  )
        11           Cu  tau(  11) = (   0.5000000   0.0962250  -0.5490532  )
        12           Cu  tau(  12) = (   0.8333333   0.0962250  -0.5490532  )
        13           Cu  tau(  13) = (   0.3333333   0.3849002  -0.5490532  )
        14           Cu  tau(  14) = (   0.6666667   0.3849002  -0.5490532  )
        15           Cu  tau(  15) = (   1.0000000   0.3849002  -0.5490532  )
        16           Cu  tau(  16) = (   0.5000000   0.6735753  -0.5490532  )
        17           Cu  tau(  17) = (   0.8333333   0.6735753  -0.5490532  )
        18           Cu  tau(  18) = (   1.1666667   0.6735753  -0.5490532  )
        19           Cu  tau(  19) = (   0.0000000   0.1924501  -0.2768877  )
        20           Cu  tau(  20) = (   0.3333333   0.1924501  -0.2768877  )
        21           Cu  tau(  21) = (   0.6666667   0.1924501  -0.2768877  )
        22           Cu  tau(  22) = (   0.1666667   0.4811252  -0.2768877  )
        23           Cu  tau(  23) = (   0.5000000   0.4811252  -0.2768877  )
        24           Cu  tau(  24) = (   0.8333333   0.4811252  -0.2768877  )
        25           Cu  tau(  25) = (   0.3333333   0.7698004  -0.2768877  )
        26           Cu  tau(  26) = (   0.6666667   0.7698004  -0.2768877  )
        27           Cu  tau(  27) = (   1.0000000   0.7698004  -0.2768877  )
        28           Cu  tau(  28) = (   0.0000000   0.0000000  -0.0047222  )
        29           Cu  tau(  29) = (   0.3333333   0.0000000  -0.0047222  )
        30           Cu  tau(  30) = (   0.6666667   0.0000000  -0.0047222  )
        31           Cu  tau(  31) = (   0.1666667   0.2886751  -0.0047222  )
        32           Cu  tau(  32) = (   0.5000000   0.2886751  -0.0047222  )
        33           Cu  tau(  33) = (   0.8333333   0.2886751  -0.0047222  )
        34           Cu  tau(  34) = (   0.3333333   0.5773503  -0.0047222  )
        35           Cu  tau(  35) = (   0.6666667   0.5773503  -0.0047222  )
        36           Cu  tau(  36) = (   1.0000000   0.5773503  -0.0047222  )

   Crystallographic axes

     site n.     atom                  positions (cryst. coord.)
         1           Cu  tau(   1) = (  0.0000000  0.0000000 -0.2982848  )
         2           Cu  tau(   2) = (  0.3333333  0.0000000 -0.2982848  )
         3           Cu  tau(   3) = (  0.6666667  0.0000000 -0.2982848  )
         4           Cu  tau(   4) = (  0.0000000  0.3333333 -0.2982848  )
         5           Cu  tau(   5) = (  0.3333333  0.3333333 -0.2982848  )
         6           Cu  tau(   6) = (  0.6666667  0.3333333 -0.2982848  )
         7           Cu  tau(   7) = ( -0.0000000  0.6666667 -0.2982848  )
         8           Cu  tau(   8) = (  0.3333333  0.6666667 -0.2982848  )
         9           Cu  tau(   9) = (  0.6666667  0.6666667 -0.2982848  )
        10           Cu  tau(  10) = (  0.1111111  0.1111111 -0.1994283  )
        11           Cu  tau(  11) = (  0.4444444  0.1111111 -0.1994283  )
        12           Cu  tau(  12) = (  0.7777778  0.1111111 -0.1994283  )
        13           Cu  tau(  13) = (  0.1111111  0.4444444 -0.1994283  )
        14           Cu  tau(  14) = (  0.4444444  0.4444444 -0.1994283  )
        15           Cu  tau(  15) = (  0.7777778  0.4444444 -0.1994283  )
        16           Cu  tau(  16) = (  0.1111111  0.7777778 -0.1994283  )
        17           Cu  tau(  17) = (  0.4444444  0.7777778 -0.1994283  )
        18           Cu  tau(  18) = (  0.7777778  0.7777778 -0.1994283  )
        19           Cu  tau(  19) = ( -0.1111111  0.2222222 -0.1005717  )
        20           Cu  tau(  20) = (  0.2222222  0.2222222 -0.1005717  )
        21           Cu  tau(  21) = (  0.5555556  0.2222222 -0.1005717  )
        22           Cu  tau(  22) = ( -0.1111111  0.5555556 -0.1005717  )
        23           Cu  tau(  23) = (  0.2222222  0.5555556 -0.1005717  )
        24           Cu  tau(  24) = (  0.5555556  0.5555556 -0.1005717  )
        25           Cu  tau(  25) = ( -0.1111111  0.8888889 -0.1005717  )
        26           Cu  tau(  26) = (  0.2222222  0.8888889 -0.1005717  )
        27           Cu  tau(  27) = (  0.5555556  0.8888889 -0.1005717  )
        28           Cu  tau(  28) = (  0.0000000  0.0000000 -0.0017152  )
        29           Cu  tau(  29) = (  0.3333333  0.0000000 -0.0017152  )
        30           Cu  tau(  30) = (  0.6666667  0.0000000 -0.0017152  )
        31           Cu  tau(  31) = (  0.0000000  0.3333333 -0.0017152  )
        32           Cu  tau(  32) = (  0.3333333  0.3333333 -0.0017152  )
        33           Cu  tau(  33) = (  0.6666667  0.3333333 -0.0017152  )
        34           Cu  tau(  34) = ( -0.0000000  0.6666667 -0.0017152  )
        35           Cu  tau(  35) = (  0.3333333  0.6666667 -0.0017152  )
        36           Cu  tau(  36) = (  0.6666667  0.6666667 -0.0017152  )

     number of k points=    10  Marzari-Vanderbilt smearing, width (Ry)=  0.0073
                       cart. coord. in units 2pi/alat
        k(    1) = (   0.0000000   0.0000000   0.0000000), wk =   0.0312500
        k(    2) = (   0.0000000   0.1443376   0.0000000), wk =   0.1875000
        k(    3) = (   0.0000000   0.2886751   0.0000000), wk =   0.1875000
        k(    4) = (   0.0000000   0.4330127   0.0000000), wk =   0.1875000
        k(    5) = (   0.0000000  -0.5773503   0.0000000), wk =   0.0937500
        k(    6) = (   0.1250000   0.2165064   0.0000000), wk =   0.1875000
        k(    7) = (   0.1250000   0.3608439   0.0000000), wk =   0.3750000
        k(    8) = (   0.1250000  -0.6495191   0.0000000), wk =   0.3750000
        k(    9) = (   0.2500000  -0.7216878   0.0000000), wk =   0.1875000
[...]
     atom    5 type  1   force =    -0.00000000    0.00000000   74.37265775
     atom    6 type  1   force =     0.00000222    0.00000299   74.37266196
     atom    7 type  1   force =    -0.00000370    0.00000043   74.37266196
     atom    8 type  1   force =     0.00000370    0.00000043   74.37266196
     atom    9 type  1   force =     0.00000000   -0.00000000   74.37267085
     atom   10 type  1   force =     0.00000472    0.00000272  221.28108651
     atom   11 type  1   force =    -0.00000000   -0.00000653  221.28108096
     atom   12 type  1   force =    -0.00000472    0.00000272  221.28108651
     atom   13 type  1   force =    -0.00000565    0.00000326  221.28108096
     atom   14 type  1   force =     0.00000565    0.00000326  221.28108096
     atom   15 type  1   force =     0.00000000    0.00001295  221.28110398
     atom   16 type  1   force =    -0.00000000   -0.00000545  221.28108651
     atom   17 type  1   force =     0.00001121   -0.00000647  221.28110398
     atom   18 type  1   force =    -0.00001121   -0.00000647  221.28110398
     atom   19 type  1   force =    -0.00000000    0.00001019  368.80192303
     atom   20 type  1   force =     0.00000894    0.00000516  368.80190343
     atom   21 type  1   force =    -0.00000894    0.00000516  368.80190343
     atom   22 type  1   force =     0.00000049   -0.00000028  368.80191396
     atom   23 type  1   force =    -0.00000000   -0.00001032  368.80190344
     atom   24 type  1   force =    -0.00000049   -0.00000028  368.80191396
     atom   25 type  1   force =    -0.00000882   -0.00000509  368.80192303
     atom   26 type  1   force =     0.00000882   -0.00000509  368.80192303
     atom   27 type  1   force =     0.00000000    0.00000057  368.80191396
     atom   28 type  1   force =    -0.00000000    0.00000000  515.71441868
     atom   29 type  1   force =     0.00001071    0.00000865  515.71436699
     atom   30 type  1   force =    -0.00001071    0.00000865  515.71436699
     atom   31 type  1   force =     0.00001285    0.00000495  515.71436699
     atom   32 type  1   force =    -0.00000000    0.00000000  515.71437153
     atom   33 type  1   force =    -0.00001285    0.00000495  515.71436699
     atom   34 type  1   force =     0.00000214   -0.00001360  515.71436699
     atom   35 type  1   force =    -0.00000214   -0.00001360  515.71436699
     atom   36 type  1   force =     0.00000000   -0.00000000  515.71438516
     The local contribution  to forces
     atom    1 type  1   force =    -0.00000000   -0.00000000  -74.26297527
     atom    2 type  1   force =    -0.00000146    0.00000340  -74.26297879
     atom    3 type  1   force =     0.00000147    0.00000340  -74.26297879
     atom    4 type  1   force =     0.00000220   -0.00000296  -74.26297879
     atom    5 type  1   force =    -0.00000001    0.00000001  -74.26297458
     atom    6 type  1   force =    -0.00000222   -0.00000296  -74.26297879
     atom    7 type  1   force =     0.00000367   -0.00000044  -74.26297879
     atom    8 type  1   force =    -0.00000367   -0.00000044  -74.26297879
     atom    9 type  1   force =     0.00000000   -0.00000001  -74.26298771
     atom   10 type  1   force =    -0.00000472   -0.00000272 -221.25628065
     atom   11 type  1   force =    -0.00000001    0.00000651 -221.25627507
     atom   12 type  1   force =     0.00000470   -0.00000272 -221.25628065
     atom   13 type  1   force =     0.00000564   -0.00000326 -221.25627507
     atom   14 type  1   force =    -0.00000564   -0.00000326 -221.25627507
     atom   15 type  1   force =     0.00000000   -0.00001293 -221.25629811
     atom   16 type  1   force =    -0.00000001    0.00000545 -221.25628065
     atom   17 type  1   force =    -0.00001120    0.00000647 -221.25629811
     atom   18 type  1   force =     0.00001119    0.00000647 -221.25629811
     atom   19 type  1   force =     0.00000000   -0.00001017 -368.82685579
     atom   20 type  1   force =    -0.00000893   -0.00000516 -368.82683616
     atom   21 type  1   force =     0.00000893   -0.00000516 -368.82683616
     atom   22 type  1   force =    -0.00000050    0.00000028 -368.82684672
     atom   23 type  1   force =    -0.00000001    0.00001031 -368.82683616
     atom   24 type  1   force =     0.00000048    0.00000028 -368.82684672
     atom   25 type  1   force =     0.00000880    0.00000508 -368.82685579
     atom   26 type  1   force =    -0.00000880    0.00000508 -368.82685579
     atom   27 type  1   force =     0.00000000   -0.00000056 -368.82684672
     atom   28 type  1   force =     0.00000000   -0.00000000 -515.82431477
     atom   29 type  1   force =    -0.00001073   -0.00000870 -515.82426289
     atom   30 type  1   force =     0.00001074   -0.00000870 -515.82426289
     atom   31 type  1   force =    -0.00001291   -0.00000494 -515.82426289
     atom   32 type  1   force =    -0.00000001    0.00000001 -515.82426761
     atom   33 type  1   force =     0.00001289   -0.00000494 -515.82426289
     atom   34 type  1   force =    -0.00000216    0.00001364 -515.82426289
     atom   35 type  1   force =     0.00000217    0.00001364 -515.82426289
     atom   36 type  1   force =     0.00000000   -0.00000001 -515.82428119
     The core correction contribution to forces
     atom    1 type  1   force =    -0.00000000    0.00000000    0.01669460
     atom    2 type  1   force =     0.00000000    0.00000000    0.01669459
     atom    3 type  1   force =     0.00000000    0.00000000    0.01669459
     atom    4 type  1   force =     0.00000000    0.00000000    0.01669459
     atom    5 type  1   force =    -0.00000000    0.00000000    0.01669460
     atom    6 type  1   force =    -0.00000000    0.00000000    0.01669459
     atom    7 type  1   force =     0.00000000   -0.00000000    0.01669459
     atom    8 type  1   force =    -0.00000000   -0.00000000    0.01669459
     atom    9 type  1   force =     0.00000000   -0.00000000    0.01669458
     atom   10 type  1   force =    -0.00000000   -0.00000000   -0.00047939
     atom   11 type  1   force =    -0.00000000    0.00000001   -0.00047940
     atom   12 type  1   force =     0.00000000   -0.00000000   -0.00047939
     atom   13 type  1   force =     0.00000001   -0.00000000   -0.00047940
     atom   14 type  1   force =    -0.00000001   -0.00000000   -0.00047940
     atom   15 type  1   force =     0.00000000   -0.00000001   -0.00047939
     atom   16 type  1   force =    -0.00000000    0.00000000   -0.00047939
     atom   17 type  1   force =    -0.00000001    0.00000001   -0.00047939
     atom   18 type  1   force =     0.00000001    0.00000001   -0.00047939
     atom   19 type  1   force =     0.00000000   -0.00000001    0.00044951
     atom   20 type  1   force =    -0.00000001   -0.00000001    0.00044950
     atom   21 type  1   force =     0.00000001   -0.00000001    0.00044950
     atom   22 type  1   force =    -0.00000000    0.00000000    0.00044951
     atom   23 type  1   force =    -0.00000000    0.00000001    0.00044950
     atom   24 type  1   force =     0.00000000    0.00000000    0.00044951
     atom   25 type  1   force =     0.00000001    0.00000000    0.00044951
     atom   26 type  1   force =    -0.00000001    0.00000000    0.00044951
     atom   27 type  1   force =     0.00000000   -0.00000000    0.00044951
     atom   28 type  1   force =     0.00000000    0.00000000   -0.01666307
     atom   29 type  1   force =    -0.00000001   -0.00000001   -0.01666306
     atom   30 type  1   force =     0.00000001   -0.00000001   -0.01666306
     atom   31 type  1   force =    -0.00000002   -0.00000000   -0.01666306
     atom   32 type  1   force =    -0.00000000    0.00000000   -0.01666305
     atom   33 type  1   force =     0.00000001   -0.00000000   -0.01666306
     atom   34 type  1   force =    -0.00000000    0.00000001   -0.01666306
     atom   35 type  1   force =     0.00000000    0.00000001   -0.01666306
     atom   36 type  1   force =     0.00000000   -0.00000000   -0.01666306
     The Hubbard contrib.    to forces
     atom    1 type  1   force =     0.00000000    0.00000000    0.00000000
     atom    2 type  1   force =     0.00000000    0.00000000    0.00000000
     atom    3 type  1   force =     0.00000000    0.00000000    0.00000000
     atom    4 type  1   force =     0.00000000    0.00000000    0.00000000
     atom    5 type  1   force =     0.00000000    0.00000000    0.00000000
     atom    6 type  1   force =     0.00000000    0.00000000    0.00000000
     atom    7 type  1   force =     0.00000000    0.00000000    0.00000000
     atom    8 type  1   force =     0.00000000    0.00000000    0.00000000
     atom    9 type  1   force =     0.00000000    0.00000000    0.00000000
     atom   10 type  1   force =     0.00000000    0.00000000    0.00000000
     atom   11 type  1   force =     0.00000000    0.00000000    0.00000000
     atom   12 type  1   force =     0.00000000    0.00000000    0.00000000
     atom   13 type  1   force =     0.00000000    0.00000000    0.00000000
     atom   14 type  1   force =     0.00000000    0.00000000    0.00000000
     atom   15 type  1   force =     0.00000000    0.00000000    0.00000000
     atom   16 type  1   force =     0.00000000    0.00000000    0.00000000
     atom   17 type  1   force =     0.00000000    0.00000000    0.00000000
     atom   18 type  1   force =     0.00000000    0.00000000    0.00000000
     atom   19 type  1   force =     0.00000000    0.00000000    0.00000000
     atom   20 type  1   force =     0.00000000    0.00000000    0.00000000
     atom   21 type  1   force =     0.00000000    0.00000000    0.00000000
     atom   22 type  1   force =     0.00000000    0.00000000    0.00000000
     atom   23 type  1   force =     0.00000000    0.00000000    0.00000000
     atom   24 type  1   force =     0.00000000    0.00000000    0.00000000
     atom   25 type  1   force =     0.00000000    0.00000000    0.00000000
     atom   26 type  1   force =     0.00000000    0.00000000    0.00000000
     atom   27 type  1   force =     0.00000000    0.00000000    0.00000000
     atom   28 type  1   force =     0.00000000    0.00000000    0.00000000
     atom   29 type  1   force =     0.00000000    0.00000000    0.00000000
     atom   30 type  1   force =     0.00000000    0.00000000    0.00000000
     atom   31 type  1   force =     0.00000000    0.00000000    0.00000000
     atom   32 type  1   force =     0.00000000    0.00000000    0.00000000
     atom   33 type  1   force =     0.00000000    0.00000000    0.00000000
     atom   34 type  1   force =     0.00000000    0.00000000    0.00000000
     atom   35 type  1   force =     0.00000000    0.00000000    0.00000000
     atom   36 type  1   force =     0.00000000    0.00000000    0.00000000
     The SCF correction term to forces
     atom    1 type  1   force =     0.00000000    0.00000000    0.00000000
     atom    2 type  1   force =     0.00000000    0.00000000    0.00000000
     atom    3 type  1   force =     0.00000000    0.00000000    0.00000000
     atom    4 type  1   force =     0.00000000    0.00000000    0.00000000
     atom    5 type  1   force =     0.00000000    0.00000000    0.00000000
     atom    6 type  1   force =     0.00000000    0.00000000    0.00000000
     atom    7 type  1   force =     0.00000000    0.00000000    0.00000000
     atom    8 type  1   force =     0.00000000    0.00000000    0.00000000
     atom    9 type  1   force =     0.00000000    0.00000000    0.00000000
     atom   10 type  1   force =    -0.00000000   -0.00000000   -0.00000019
     atom   11 type  1   force =     0.00000000   -0.00000000   -0.00000019
     atom   12 type  1   force =     0.00000000   -0.00000000   -0.00000019
     atom   13 type  1   force =    -0.00000000    0.00000000   -0.00000019
     atom   14 type  1   force =     0.00000000    0.00000000   -0.00000019
     atom   15 type  1   force =     0.00000000   -0.00000000   -0.00000019
     atom   16 type  1   force =     0.00000000    0.00000000   -0.00000019
     atom   17 type  1   force =    -0.00000000    0.00000000   -0.00000019
     atom   18 type  1   force =     0.00000000    0.00000000   -0.00000019
     atom   19 type  1   force =    -0.00000000   -0.00000000   -0.00000034
     atom   20 type  1   force =    -0.00000000   -0.00000000   -0.00000035
     atom   21 type  1   force =     0.00000000   -0.00000000   -0.00000035
     atom   22 type  1   force =    -0.00000000    0.00000000   -0.00000034
     atom   23 type  1   force =     0.00000000    0.00000000   -0.00000035
     atom   24 type  1   force =     0.00000000    0.00000000   -0.00000034
     atom   25 type  1   force =     0.00000000    0.00000000   -0.00000034
     atom   26 type  1   force =    -0.00000000    0.00000000   -0.00000034
     atom   27 type  1   force =    -0.00000000   -0.00000000   -0.00000034
     atom   28 type  1   force =     0.00000000   -0.00000000   -0.00000042
     atom   29 type  1   force =    -0.00000000   -0.00000000   -0.00000042
     atom   30 type  1   force =     0.00000000   -0.00000000   -0.00000042
     atom   31 type  1   force =    -0.00000000   -0.00000000   -0.00000042
     atom   32 type  1   force =    -0.00000000    0.00000000   -0.00000042
     atom   33 type  1   force =     0.00000000   -0.00000000   -0.00000042
     atom   34 type  1   force =    -0.00000000    0.00000000   -0.00000042
     atom   35 type  1   force =     0.00000000    0.00000000   -0.00000042
     atom   36 type  1   force =    -0.00000000   -0.00000000   -0.00000042

     Total force =     0.000290     Total SCF correction =     0.000002
     Energy error            =      1.5E-07 Ry
     Gradient error          =      7.0E-05 Ry/Bohr

     bfgs converged in  18 scf cycles and  16 bfgs steps
     (criteria: energy <  7.3E-07 Ry, force <  3.9E-04 Ry/Bohr)

     End of BFGS Geometry Optimization

     Final energy             =   -7840.4449948189 Ry

     File tmp_1200/slab_1200.bfgs deleted, as requested
Begin final coordinates

ATOMIC_POSITIONS (angstrom)
Cu            0.0000000000        0.0000000000       -6.3606463468    0   0   0
Cu            2.5817912981        0.0000000000       -6.3606463468    0   0   0
Cu            5.1635825962       -0.0000000000       -6.3606463468    0   0   0
Cu            1.2908956491        2.2358968514       -6.3606463468    0   0   0
Cu            3.8726869472        2.2358968514       -6.3606463468    0   0   0
Cu            6.4544782453        2.2358968514       -6.3606463468    0   0   0
Cu            2.5817912981        4.4717937029       -6.3606463468    0   0   0
Cu            5.1635825962        4.4717937029       -6.3606463468    0   0   0
Cu            7.7453738943        4.4717937029       -6.3606463468    0   0   0
Cu            1.2908955572        0.7452988975       -4.2722587861
Cu            3.8726869472        0.7452990665       -4.2722589552
Cu            6.4544783372        0.7452988975       -4.2722587861
Cu            2.5817913986        2.9811957439       -4.2722589552
Cu            5.1635824957        2.9811957439       -4.2722589552
Cu            7.7453738943        2.9811955044       -4.2722585296
Cu            3.8726869472        5.2170927594       -4.2722587861
Cu            6.4544779876        5.2170928021       -4.2722585296
Cu            9.0362698011        5.2170928021       -4.2722585296
Cu           -0.0000000000        1.4905975634       -2.1823569487
Cu            2.5817911727        1.4905978286       -2.1823573232
Cu            5.1635827216        1.4905978286       -2.1823573232
Cu            1.2908956365        3.7264947597       -2.1823570589
Cu            3.8726869472        3.7264948971       -2.1823573232
Cu            6.4544782579        3.7264947597       -2.1823570589
Cu            2.5817915905        5.9623917726       -2.1823569487
Cu            5.1635823038        5.9623917726       -2.1823569487
Cu            7.7453738943        5.9623915892       -2.1823570589
Cu           -0.0000000000       -0.0000000000       -0.0927736790
Cu            2.5817911205       -0.0000001734       -0.0927745198
Cu            5.1635827738       -0.0000001734       -0.0927745198
Cu            1.2908954102        2.2358967843       -0.0927745198
Cu            3.8726869472        2.2358968514       -0.0927743776
Cu            6.4544784842        2.2358967843       -0.0927745198
Cu            2.5817912368        4.4717939434       -0.0927745198
Cu            5.1635826575        4.4717939434       -0.0927745198
Cu            7.7453738943        4.4717937029       -0.0927741966
End final coordinates

     Writing all to output data dir tmp_1200/slab_1200.save/

     General routines

     Parallel routines

     PAW routines

   This run was terminated on:  12:55:12   4Oct2024

   JOB DONE.