     Program PWSCF v.7.2 starts on 17Jul2024 at  6:44:17

     Reading input from Cu-1200-7.750918200505966.pwi
Warning: card &CELL ignored
Warning: card / ignored

     Current dimensions of program PWSCF are:
     Max number of different atomic species (ntypx) = 10
     Max number of k-points (npk) =  40000
     Max angular momentum in pseudopotentials (lmaxx) =  4
     file Cu.beef-dn-kjpaw_psl.1.0.0.UPF: wavefunction(s)  4S 3D renormalized
     file C.beef-n-kjpaw_psl.1.0.0.UPF: wavefunction(s)  2S 2P renormalized
     file O.beef-n-kjpaw_psl.1.0.0.UPF: wavefunction(s)  2P renormalized

     IMPORTANT: XC functional enforced from input :
     Exchange-correlation= BEEF-VDW
                           (   1   4  43  14   2   0   0)
     Any further DFT definition will be discarded
     Please, verify this is what you really want

     Message from routine setup:
     using ibrav=0 with symmetry is DISCOURAGED, use correct ibrav instead

     K-points division:     npool     =       2
     R & G space division:  proc/nbgrp/npool/nimage =      96
     Subspace diagonalization in iterative solution of the eigenvalue problem:
     one sub-group per band group will be used

     Using Slab Decomposition

     Title:
     Cu-1200-7.750918200505966

     bravais-lattice index     =            0
     lattice parameter (alat)  =      14.6471  a.u.
     unit-cell volume          =    7488.5176 (a.u.)^3
     number of atoms/cell      =           38
     number of atomic types    =            3
     number of electrons       =       406.00
     number of Kohn-Sham states=          244
     kinetic-energy cutoff     =      88.1984  Ry
     charge density cutoff     =     881.9837  Ry
     scf convergence threshold =      7.3E-12
     mixing beta               =       0.3333
     number of iterations used =           12  local-TF  mixing
     energy convergence thresh.=      7.3E-07
     force convergence thresh. =      3.9E-04
     Exchange-correlation= BEEF-VDW
                           (   1   4  43  14   2   0   0)
     nstep                     =           50

     Effective Screening Medium Method
     Boundary Conditions: Vacuum-Slab-Metal
     total charge in unit cell        =   0.0000
     grid points for fit at edges     =        4

     celldm(1)=  14.647113  celldm(2)=   0.000000  celldm(3)=   0.000000
     celldm(4)=   0.000000  celldm(5)=   0.000000  celldm(6)=   0.000000

     crystal axes: (cart. coord. in units of alat)
               a(1) = (   1.000000   0.000000   0.000000 )
               a(2) = (   0.500000   0.866025   0.000000 )
               a(3) = (   0.000000   0.000000   2.751751 )

     reciprocal axes: (cart. coord. in units 2 pi/alat)
               b(1) = (  1.000000 -0.577350  0.000000 )
               b(2) = (  0.000000  1.154701  0.000000 )
               b(3) = (  0.000000  0.000000  0.363405 )

     PseudoPot. # 1 for Cu read from file:
     /home/k0227/k022716/QE/pseudo/beef/Cu.beef-dn-kjpaw_psl.1.0.0.UPF
     MD5 check sum: 5c2e06f1363dd15696904a521997ce16
     Pseudo is Projector augmented-wave + core cor, Zval = 11.0
     Generated using 'atomic' code by A. Dal Corso  v.7.2
     Shape of augmentation charge: PSQ
     Using radial grid of 1199 points,  6 beta functions with:
                l(1) =   0
                l(2) =   0
                l(3) =   1
                l(4) =   1
                l(5) =   2
                l(6) =   2
     Q(r) pseudized with 0 coefficients

     PseudoPot. # 2 for C  read from file:
     /home/k0227/k022716/QE/pseudo/beef/C.beef-n-kjpaw_psl.1.0.0.UPF
     MD5 check sum: 3242be9e0015b82b0ed5ff45e65f34ec
     Pseudo is Projector augmented-wave + core cor, Zval =  4.0
     Generated using 'atomic' code by A. Dal Corso  v.7.2
     Shape of augmentation charge: PSQ
     Using radial grid of 1073 points,  4 beta functions with:
                l(1) =   0
                l(2) =   0
                l(3) =   1
                l(4) =   1
     Q(r) pseudized with 0 coefficients

     PseudoPot. # 3 for O  read from file:
     /home/k0227/k022716/QE/pseudo/beef/O.beef-n-kjpaw_psl.1.0.0.UPF
     MD5 check sum: be449223b47fa93bb079dbf01a63c6ce
     Pseudo is Projector augmented-wave + core cor, Zval =  6.0
     Generated using 'atomic' code by A. Dal Corso  v.7.2
     Shape of augmentation charge: PSQ
     Using radial grid of 1095 points,  4 beta functions with:
                l(1) =   0
                l(2) =   0
                l(3) =   1
                l(4) =   1
     Q(r) pseudized with 0 coefficients

     atomic species   valence    mass     pseudopotential
        Cu            11.00    63.54600     Cu( 1.00)
        C              4.00    12.01100     C ( 1.00)
        O              6.00    15.99900     O ( 1.00)

      6 Sym. Ops. (no inversion) found

                                    s                        frac. trans.

      isym =  1     identity

 cryst.   s( 1) = (     1          0          0      )
                  (     0          1          0      )
                  (     0          0          1      )

 cart.    s( 1) = (  1.0000000  0.0000000  0.0000000 )
                  (  0.0000000  1.0000000  0.0000000 )
                  (  0.0000000  0.0000000  1.0000000 )

      isym =  2     120 deg rotation - cryst. axis [0,0,1]

[...]

      isym =  3     120 deg rotation - cryst. axis [0,0,-1]

[...]

      isym =  4     inv. 180 deg rotation - cart. axis [1,0,0]

[...]

      isym =  5     inv. 180 deg rotation - cryst. axis [0,1,0]

[...]

      isym =  6     inv. 180 deg rotation - cryst. axis [1,1,0]

 cryst.   s( 6) = (     1         -1          0      )
                  (     0         -1          0      )
                  (     0          0          1      )

 cart.    s( 6) = (  0.5000000 -0.8660254  0.0000000 )
                  ( -0.8660254 -0.5000000  0.0000000 )
                  (  0.0000000  0.0000000  1.0000000 )

   Cartesian axes

     site n.     atom                  positions (alat units)
         1           Cu  tau(   1) = (   0.0000000   0.0000000  -0.8210110  )
         2           Cu  tau(   2) = (   0.3333333   0.0000000  -0.8210110  )
         3           Cu  tau(   3) = (   0.6666667   0.0000000  -0.8210110  )
         4           Cu  tau(   4) = (   0.1666667   0.2886751  -0.8210110  )
         5           Cu  tau(   5) = (   0.5000000   0.2886751  -0.8210110  )
         6           Cu  tau(   6) = (   0.8333333   0.2886751  -0.8210110  )
         7           Cu  tau(   7) = (   0.3333333   0.5773503  -0.8210110  )
         8           Cu  tau(   8) = (   0.6666667   0.5773503  -0.8210110  )
         9           Cu  tau(   9) = (   1.0000000   0.5773503  -0.8210110  )
        10           Cu  tau(  10) = (   0.1666667   0.0962250  -0.5488454  )
        11           Cu  tau(  11) = (   0.5000000   0.0962250  -0.5488454  )
        12           Cu  tau(  12) = (   0.8333333   0.0962250  -0.5488454  )
        13           Cu  tau(  13) = (   0.3333333   0.3849002  -0.5488454  )
        14           Cu  tau(  14) = (   0.6666667   0.3849002  -0.5488454  )
        15           Cu  tau(  15) = (   1.0000000   0.3849002  -0.5488454  )
        16           Cu  tau(  16) = (   0.5000000   0.6735753  -0.5488454  )
        17           Cu  tau(  17) = (   0.8333333   0.6735753  -0.5488454  )
        18           Cu  tau(  18) = (   1.1666667   0.6735753  -0.5488454  )
        19           Cu  tau(  19) = (   0.0000000   0.1924501  -0.2766799  )
        20           Cu  tau(  20) = (   0.3333333   0.1924501  -0.2766799  )
        21           Cu  tau(  21) = (   0.6666667   0.1924501  -0.2766799  )
        22           Cu  tau(  22) = (   0.1666667   0.4811252  -0.2766799  )
        23           Cu  tau(  23) = (   0.5000000   0.4811252  -0.2766799  )
        24           Cu  tau(  24) = (   0.8333333   0.4811252  -0.2766799  )
        25           Cu  tau(  25) = (   0.3333333   0.7698004  -0.2766799  )
        26           Cu  tau(  26) = (   0.6666667   0.7698004  -0.2766799  )
        27           Cu  tau(  27) = (   1.0000000   0.7698004  -0.2766799  )
        28           Cu  tau(  28) = (   0.0000000   0.0000000  -0.0045144  )
        29           Cu  tau(  29) = (   0.3333333   0.0000000  -0.0045144  )
        30           Cu  tau(  30) = (   0.6666667   0.0000000  -0.0045144  )
        31           Cu  tau(  31) = (   0.1666667   0.2886751  -0.0045144  )
        32           Cu  tau(  32) = (   0.5000000   0.2886751  -0.0045144  )
        33           Cu  tau(  33) = (   0.8333333   0.2886751  -0.0045144  )
        34           Cu  tau(  34) = (   0.3333333   0.5773503  -0.0045144  )
        35           Cu  tau(  35) = (   0.6666667   0.5773503  -0.0045144  )
        36           Cu  tau(  36) = (   1.0000000   0.5773503  -0.0045144  )
        37           C   tau(  37) = (   0.5000000   0.2886751   0.1002466  )
        38           O   tau(  38) = (   0.5000000   0.2886751   0.2470687  )

   Crystallographic axes

     site n.     atom                  positions (cryst. coord.)
         1           Cu  tau(   1) = (  0.0000000  0.0000000 -0.2983595  )
         2           Cu  tau(   2) = (  0.3333333  0.0000000 -0.2983595  )
         3           Cu  tau(   3) = (  0.6666667  0.0000000 -0.2983595  )
         4           Cu  tau(   4) = ( -0.0000000  0.3333333 -0.2983595  )
         5           Cu  tau(   5) = (  0.3333333  0.3333333 -0.2983595  )
         6           Cu  tau(   6) = (  0.6666667  0.3333333 -0.2983595  )
         7           Cu  tau(   7) = (  0.0000000  0.6666667 -0.2983595  )
         8           Cu  tau(   8) = (  0.3333333  0.6666667 -0.2983595  )
         9           Cu  tau(   9) = (  0.6666667  0.6666667 -0.2983595  )
        10           Cu  tau(  10) = (  0.1111111  0.1111111 -0.1994532  )
        11           Cu  tau(  11) = (  0.4444444  0.1111111 -0.1994532  )
        12           Cu  tau(  12) = (  0.7777778  0.1111111 -0.1994532  )
        13           Cu  tau(  13) = (  0.1111111  0.4444444 -0.1994532  )
        14           Cu  tau(  14) = (  0.4444444  0.4444444 -0.1994532  )
        15           Cu  tau(  15) = (  0.7777778  0.4444444 -0.1994532  )
        16           Cu  tau(  16) = (  0.1111111  0.7777778 -0.1994532  )
        17           Cu  tau(  17) = (  0.4444444  0.7777778 -0.1994532  )
        18           Cu  tau(  18) = (  0.7777778  0.7777778 -0.1994532  )
        19           Cu  tau(  19) = ( -0.1111111  0.2222222 -0.1005468  )
        20           Cu  tau(  20) = (  0.2222222  0.2222222 -0.1005468  )
        21           Cu  tau(  21) = (  0.5555556  0.2222222 -0.1005468  )
        22           Cu  tau(  22) = ( -0.1111111  0.5555556 -0.1005468  )
        23           Cu  tau(  23) = (  0.2222222  0.5555556 -0.1005468  )
        24           Cu  tau(  24) = (  0.5555556  0.5555556 -0.1005468  )
        25           Cu  tau(  25) = ( -0.1111111  0.8888889 -0.1005468  )
        26           Cu  tau(  26) = (  0.2222222  0.8888889 -0.1005468  )
        27           Cu  tau(  27) = (  0.5555556  0.8888889 -0.1005468  )
        28           Cu  tau(  28) = (  0.0000000  0.0000000 -0.0016405  )
[...]
     atom   18 type  1   force =     0.03759972    0.02170821  220.85790281
     atom   19 type  1   force =     0.00000000   -0.05211639  367.12957980
     atom   20 type  1   force =    -0.15319024   -0.08844443  369.75217176
     atom   21 type  1   force =     0.15319024   -0.08844443  369.75217176
     atom   22 type  1   force =    -0.05391334    0.03112688  367.99349885
     atom   23 type  1   force =    -0.00000000    0.17688885  369.75217176
     atom   24 type  1   force =     0.05391334    0.03112688  367.99349885
     atom   25 type  1   force =     0.04513412    0.02605820  367.12957980
     atom   26 type  1   force =    -0.04513412    0.02605820  367.12957980
     atom   27 type  1   force =     0.00000000   -0.06225376  367.99349885
     atom   28 type  1   force =    -0.00000000    0.00000000  515.81891978
     atom   29 type  1   force =    -0.66682668   -0.89352302  514.46361764
     atom   30 type  1   force =     0.66682668   -0.89352302  514.46361764
     atom   31 type  1   force =    -1.10722697   -0.13072734  514.46361764
     atom   32 type  1   force =    -0.00000000   -0.00000000  513.88120922
     atom   33 type  1   force =     1.10722697   -0.13072734  514.46361764
     atom   34 type  1   force =    -0.44040029    1.02425036  514.46361764
     atom   35 type  1   force =     0.44040029    1.02425036  514.46361764
     atom   36 type  1   force =     0.00000000    0.00000000  516.59178445
     atom   37 type  2   force =    -0.00000000   -0.00000000  207.75382710
     atom   38 type  3   force =    -0.00000000   -0.00000000  336.18100936
     The local contribution  to forces
     atom    1 type  1   force =    -0.00000000   -0.00000000  -74.29099548
     atom    2 type  1   force =     0.03595392    0.01294909  -74.15153079
     atom    3 type  1   force =    -0.03595392    0.01294909  -74.15153079
     atom    4 type  1   force =     0.02919121    0.02466246  -74.15153079
     atom    5 type  1   force =    -0.00000001   -0.00000001  -74.14143007
     atom    6 type  1   force =    -0.02919121    0.02466246  -74.15153079
     atom    7 type  1   force =    -0.00676273   -0.03761156  -74.15153079
     atom    8 type  1   force =     0.00676273   -0.03761156  -74.15153079
     atom    9 type  1   force =     0.00000000    0.00000001  -74.12327471
     atom   10 type  1   force =     0.06864158    0.03963024 -220.96782165
     atom   11 type  1   force =    -0.00000001   -0.07710237 -221.00897659
     atom   12 type  1   force =    -0.06864158    0.03963024 -220.96782165
     atom   13 type  1   force =    -0.06677262    0.03855118 -221.00897659
     atom   14 type  1   force =     0.06677262    0.03855118 -221.00897659
     atom   15 type  1   force =     0.00000000    0.04209590 -220.84027855
     atom   16 type  1   force =    -0.00000001   -0.07926047 -220.96782165
     atom   17 type  1   force =     0.03645613   -0.02104795 -220.84027855
     atom   18 type  1   force =    -0.03645613   -0.02104795 -220.84027855
     atom   19 type  1   force =    -0.00000000    0.04750428 -367.15772784
     atom   20 type  1   force =     0.16694553    0.09638605 -369.75796150
     atom   21 type  1   force =    -0.16694553    0.09638605 -369.75796150
     atom   22 type  1   force =     0.04735421   -0.02733996 -368.02524000
     atom   23 type  1   force =    -0.00000001   -0.19277209 -369.75796150
     atom   24 type  1   force =    -0.04735421   -0.02733996 -368.02524000
     atom   25 type  1   force =    -0.04113992   -0.02375214 -367.15772784
     atom   26 type  1   force =     0.04113992   -0.02375214 -367.15772784
     atom   27 type  1   force =     0.00000000    0.05467993 -368.02524000
     atom   28 type  1   force =    -0.00000000   -0.00000000 -515.91978314
     atom   29 type  1   force =     0.65282090    0.87167770 -514.59447034
     atom   30 type  1   force =    -0.65282090    0.87167770 -514.59447034
     atom   31 type  1   force =     1.08130548    0.12952063 -514.59447034
     atom   32 type  1   force =    -0.00000001   -0.00000001 -513.92196810
     atom   33 type  1   force =    -1.08130548    0.12952063 -514.59447034
     atom   34 type  1   force =     0.42848458   -1.00119833 -514.59447034
     atom   35 type  1   force =    -0.42848458   -1.00119833 -514.59447034
     atom   36 type  1   force =     0.00000000    0.00000001 -516.69642138
     atom   37 type  2   force =    -0.00000000   -0.00000000 -208.53665227
     atom   38 type  3   force =    -0.00000000   -0.00000000 -333.45389279
     The core correction contribution to forces
     atom    1 type  1   force =     0.00000000    0.00000000    0.01673353
     atom    2 type  1   force =    -0.00010634    0.00016837    0.01697378
     atom    3 type  1   force =     0.00010634    0.00016837    0.01697378
     atom    4 type  1   force =     0.00009264   -0.00017628    0.01697378
     atom    5 type  1   force =    -0.00000000   -0.00000000    0.01641478
     atom    6 type  1   force =    -0.00009264   -0.00017628    0.01697378
     atom    7 type  1   force =     0.00019898    0.00000791    0.01697378
     atom    8 type  1   force =    -0.00019898    0.00000791    0.01697378
     atom    9 type  1   force =     0.00000000    0.00000000    0.01698697
     atom   10 type  1   force =     0.00038455    0.00022202   -0.00041532
     atom   11 type  1   force =    -0.00000000   -0.00037423   -0.00106374
     atom   12 type  1   force =    -0.00038455    0.00022202   -0.00041532
     atom   13 type  1   force =    -0.00032409    0.00018711   -0.00106374
     atom   14 type  1   force =     0.00032409    0.00018711   -0.00106374
     atom   15 type  1   force =     0.00000000    0.00007319    0.00008907
     atom   16 type  1   force =    -0.00000000   -0.00044404   -0.00041532
     atom   17 type  1   force =     0.00006338   -0.00003659    0.00008907
     atom   18 type  1   force =    -0.00006338   -0.00003659    0.00008907
     atom   19 type  1   force =    -0.00000000   -0.00018008    0.00053742
     atom   20 type  1   force =     0.00119528    0.00069010    0.00062211
     atom   21 type  1   force =    -0.00119528    0.00069010    0.00062211
     atom   22 type  1   force =     0.00028885   -0.00016677    0.00113897
     atom   23 type  1   force =    -0.00000000   -0.00138019    0.00062211
     atom   24 type  1   force =    -0.00028885   -0.00016677    0.00113897
     atom   25 type  1   force =     0.00015595    0.00009004    0.00053742
     atom   26 type  1   force =    -0.00015595    0.00009004    0.00053742
     atom   27 type  1   force =     0.00000000    0.00033354    0.00113897
     atom   28 type  1   force =     0.00000000   -0.00000000   -0.01726147
     atom   29 type  1   force =    -0.00033708   -0.00070588   -0.01718123
     atom   30 type  1   force =     0.00033708   -0.00070588   -0.01718123
     atom   31 type  1   force =    -0.00077985    0.00006102   -0.01718123
     atom   32 type  1   force =    -0.00000000   -0.00000000    0.02358217
     atom   33 type  1   force =     0.00077985    0.00006102   -0.01718123
     atom   34 type  1   force =    -0.00044278    0.00064486   -0.01718123
     atom   35 type  1   force =     0.00044278    0.00064486   -0.01718123
     atom   36 type  1   force =     0.00000000    0.00000000   -0.01766500
     atom   37 type  2   force =     0.00000000    0.00000000   -0.00312787
     atom   38 type  3   force =     0.00000000    0.00000000    0.01742498
     The Hubbard contrib.    to forces
     atom    1 type  1   force =     0.00000000    0.00000000    0.00000000
     atom    2 type  1   force =     0.00000000    0.00000000    0.00000000
     atom    3 type  1   force =     0.00000000    0.00000000    0.00000000
     atom    4 type  1   force =     0.00000000    0.00000000    0.00000000
     atom    5 type  1   force =     0.00000000    0.00000000    0.00000000
     atom    6 type  1   force =     0.00000000    0.00000000    0.00000000
     atom    7 type  1   force =     0.00000000    0.00000000    0.00000000
     atom    8 type  1   force =     0.00000000    0.00000000    0.00000000
     atom    9 type  1   force =     0.00000000    0.00000000    0.00000000
     atom   10 type  1   force =     0.00000000    0.00000000    0.00000000
     atom   11 type  1   force =     0.00000000    0.00000000    0.00000000
     atom   12 type  1   force =     0.00000000    0.00000000    0.00000000
     atom   13 type  1   force =     0.00000000    0.00000000    0.00000000
     atom   14 type  1   force =     0.00000000    0.00000000    0.00000000
     atom   15 type  1   force =     0.00000000    0.00000000    0.00000000
     atom   16 type  1   force =     0.00000000    0.00000000    0.00000000
     atom   17 type  1   force =     0.00000000    0.00000000    0.00000000
     atom   18 type  1   force =     0.00000000    0.00000000    0.00000000
     atom   19 type  1   force =     0.00000000    0.00000000    0.00000000
     atom   20 type  1   force =     0.00000000    0.00000000    0.00000000
     atom   21 type  1   force =     0.00000000    0.00000000    0.00000000
     atom   22 type  1   force =     0.00000000    0.00000000    0.00000000
     atom   23 type  1   force =     0.00000000    0.00000000    0.00000000
     atom   24 type  1   force =     0.00000000    0.00000000    0.00000000
     atom   25 type  1   force =     0.00000000    0.00000000    0.00000000
     atom   26 type  1   force =     0.00000000    0.00000000    0.00000000
     atom   27 type  1   force =     0.00000000    0.00000000    0.00000000
     atom   28 type  1   force =     0.00000000    0.00000000    0.00000000
     atom   29 type  1   force =     0.00000000    0.00000000    0.00000000
     atom   30 type  1   force =     0.00000000    0.00000000    0.00000000
     atom   31 type  1   force =     0.00000000    0.00000000    0.00000000
     atom   32 type  1   force =     0.00000000    0.00000000    0.00000000
     atom   33 type  1   force =     0.00000000    0.00000000    0.00000000
     atom   34 type  1   force =     0.00000000    0.00000000    0.00000000
     atom   35 type  1   force =     0.00000000    0.00000000    0.00000000
     atom   36 type  1   force =     0.00000000    0.00000000    0.00000000
     atom   37 type  2   force =     0.00000000    0.00000000    0.00000000
     atom   38 type  3   force =     0.00000000    0.00000000    0.00000000
     The SCF correction term to forces
     atom    1 type  1   force =     0.00000000    0.00000000    0.00000000
     atom    2 type  1   force =     0.00000000    0.00000000    0.00000000
     atom    3 type  1   force =     0.00000000    0.00000000    0.00000000
     atom    4 type  1   force =     0.00000000    0.00000000    0.00000000
     atom    5 type  1   force =     0.00000000    0.00000000    0.00000000
     atom    6 type  1   force =     0.00000000    0.00000000    0.00000000
     atom    7 type  1   force =     0.00000000    0.00000000    0.00000000
     atom    8 type  1   force =     0.00000000    0.00000000    0.00000000
     atom    9 type  1   force =     0.00000000    0.00000000    0.00000000
     atom   10 type  1   force =     0.00000002    0.00000001    0.00000001
     atom   11 type  1   force =     0.00000000   -0.00000000    0.00000001
     atom   12 type  1   force =    -0.00000002    0.00000001    0.00000001
     atom   13 type  1   force =    -0.00000000    0.00000000    0.00000001
     atom   14 type  1   force =     0.00000000    0.00000000    0.00000001
     atom   15 type  1   force =     0.00000000    0.00000001   -0.00000001
     atom   16 type  1   force =    -0.00000000   -0.00000003    0.00000001
     atom   17 type  1   force =     0.00000001   -0.00000001   -0.00000001
     atom   18 type  1   force =    -0.00000001   -0.00000001   -0.00000001
     atom   19 type  1   force =    -0.00000000   -0.00000006    0.00000004
     atom   20 type  1   force =    -0.00000010   -0.00000006   -0.00000010
     atom   21 type  1   force =     0.00000010   -0.00000006   -0.00000010
     atom   22 type  1   force =     0.00000008   -0.00000005    0.00000001
     atom   23 type  1   force =    -0.00000000    0.00000011   -0.00000010
     atom   24 type  1   force =    -0.00000008   -0.00000005    0.00000001
     atom   25 type  1   force =     0.00000005    0.00000003    0.00000004
     atom   26 type  1   force =    -0.00000005    0.00000003    0.00000004
     atom   27 type  1   force =    -0.00000000    0.00000009    0.00000001
     atom   28 type  1   force =    -0.00000000    0.00000000   -0.00000013
     atom   29 type  1   force =     0.00000002    0.00000004    0.00000006
     atom   30 type  1   force =    -0.00000002    0.00000004    0.00000006
     atom   31 type  1   force =     0.00000004   -0.00000000    0.00000006
     atom   32 type  1   force =    -0.00000000    0.00000000    0.00000030
     atom   33 type  1   force =    -0.00000004   -0.00000000    0.00000006
     atom   34 type  1   force =     0.00000002   -0.00000003    0.00000006
     atom   35 type  1   force =    -0.00000002   -0.00000003    0.00000006
     atom   36 type  1   force =    -0.00000000    0.00000000   -0.00000015
     atom   37 type  2   force =     0.00000000   -0.00000000    0.00000009
     atom   38 type  3   force =     0.00000000   -0.00000000    0.00000005

     Total force =     0.000608     Total SCF correction =     0.000001
     Energy error            =      4.8E-08 Ry
     Gradient error          =      2.1E-04 Ry/Bohr

     bfgs converged in  41 scf cycles and  40 bfgs steps
     (criteria: energy <  7.3E-07 Ry, force <  3.9E-04 Ry/Bohr)

     End of BFGS Geometry Optimization

     Final energy             =   -7900.8541910645 Ry

     File tmp/Cu-1200-7.750918200505966.bfgs deleted, as requested
Begin final coordinates

ATOMIC_POSITIONS (angstrom)
Cu            0.0000000000        0.0000000000       -6.3635888363    0   0   0
Cu            2.5836394002        0.0000000000       -6.3635888363    0   0   0
Cu            5.1672788003        0.0000000000       -6.3635888363    0   0   0
Cu            1.2918197001        2.2374973548       -6.3635888363    0   0   0
Cu            3.8754591003        2.2374973548       -6.3635888363    0   0   0
Cu            6.4590985004        2.2374973548       -6.3635888363    0   0   0
Cu            2.5836394002        4.4749947095       -6.3635888363    0   0   0
Cu            5.1672788003        4.4749947095       -6.3635888363    0   0   0
Cu            7.7509182005        4.4749947095       -6.3635888363    0   0   0
Cu            1.2997306552        0.7503998436       -4.2772658076
Cu            3.8754591003        0.7461712581       -4.2787157352
Cu            6.4511875453        0.7503998436       -4.2772658076
Cu            2.5839328153        2.9831604031       -4.2787157352
Cu            5.1669853852        2.9831604031       -4.2787157352
Cu            7.7509182005        2.9842098928       -4.2786192960
Cu            3.8754591003        5.2116923770       -4.2772658076
Cu            6.4598606776        5.2203871179       -4.2786192960
Cu            9.0419757234        5.2203871179       -4.2786192960
Cu            0.0000000000        1.4877098263       -2.2086311474
Cu            2.5988620172        1.5004536852       -2.1668544006
Cu            5.1520561833        1.5004536852       -2.1668544006
Cu            1.2926025119        3.7287103013       -2.1946957301
Cu            3.8754591003        3.7115846939       -2.1668544006
Cu            6.4583156886        3.7287103013       -2.1946957301
Cu            2.5870645973        5.9686371512       -2.2086311474
Cu            5.1638536032        5.9686371512       -2.2086311474
Cu            7.7509182005        5.9675635259       -2.1946957301
Cu           -0.0000000000       -0.0000000000       -0.1218883419
Cu            2.5741781890       -0.0211291804       -0.1240379023
Cu            5.1767400115       -0.0211291804       -0.1240379023
Cu            1.2687906876        2.2398682958       -0.1240379023
Cu            3.8754591003        2.2374973548        0.0030466635
Cu            6.4821275129        2.2398682958       -0.1240379023
Cu            2.5700715988        4.4937529489       -0.1240379023
Cu            5.1808466017        4.4937529489       -0.1240379023
Cu            7.7509182005        4.4749947095       -0.1087647187
C             3.8754591003        2.2374973548        1.8799415610
O             3.8754591003        2.2374973548        3.0306491409
End final coordinates

     Writing all to output data dir tmp/Cu-1200-7.750918200505966.save/

     General routines

     Parallel routines

     PAW routines

   This run was terminated on:   0:13:34  18Jul2024

   JOB DONE.
========= Job finished at Thu Jul 18 00:13:38 JST 2024 ==========